trackid,time4,w4cq01,w4homlang,w4hstruct_1,w4hstruct_2,w4hstruct_3,w4hstruct_4,w4hstruct_5,w4hstruct_6,w4hstruct_7,w4hstruct_8,w4hstruct_9,w4hstruct_10,w4hstruct_10_TEXT,w4momed,w4relpar_1,w4relpar_2,w4relpar_3,w4relpar_4,w4relpar_5,w4relpar_6,w4relpar_7,w4sch_1,w4sch_2,w4sch_3,w4remsch_1,w4remsch_2,w4remsch_3,w4remsch_4,w4remsch_5,w4remsch_6,w4agesmart,w4parmon_1,w4parmon_2,w4parmon_3,w4parmon_4,w4parmon_5,w4parmon_6,w4parmon_7,w4parmon_8,w4parmon2_1,w4parmon2_2,w4parmon2_3,w4parmon2_4,w4parmon2_5,w4parmon2_6,w4parmon2_7,w4parmon2_8,w4parmon2_7_TEXT,w4parmon3,w4smwuse_1,w4smwuse_2,w4smwuse_3,w4smwuse_4,w4smwuse_5,w4smwuse_6,w4smwuse_7,w4smwuse_8,w4smwuse_9,w4smwuse_10,w4smwuse_11,w4smwuse_12,w4smwuse_12_TEXT,w4gameplay_1,w4gameplay_2,w4gamebeh_2,w4dep_1,w4dep_2,w4dep_3,w4dep_4,w4dep_5,w4dep_6,w4dep_7,w4dep_8,w4dep_9,w4dep_10,w4socanx_1,w4socanx_2,w4socanx_3,w4socanx_4,w4socanx_5,w4socanx_6,w4feel1,w4feel2,w4feel3,w4stress_1,w4stress_2,w4stress_3,w4stress_4,w4stress_5,w4stress_6,w4stress_7,w4stress_8,w4stress_10,w4stress_11,w4stress_12,w4bodimg_1,w4bodimg_2,w4bodimg_3,w4bodimg_4,w4sexor,w4sexor_5_TEXT,w4covidh_1,w4covidh_2,w4covidh_3,w4covidh_4,w4covidh_5,w4covidh_6,w4covidh_7,w4covidh_10,w4covidc_1,w4covidc_2,w4covidc_3,w4covidc_4,w4covidc_5,w4covidc_6,w4cparcheck,w4gender,w4gender_3_TEXT,w4grade,w4schgra,w4iep,w4iep_TEXT,w4oc,w4race_4,w4race_2,w4race_5,w4race_1,w4hisp,w4race_7,w4race_8,w4race_6,w4race_6_TEXT
4,1,3,6,1,1, , , , , , , , , ,3,4,2,1,5,1,1,1,3,3,2,0,0,0,0,0,1,11,1,1,2,4,1,1,4,3, , ,1, , , , , , ,8, , ,1, ,1, , , ,1, , , , ,1,1,2,0,1,0, ,2,1,0,1,1,0,3,3,1,1,1,1,2,1,2,4,3,3,4,1,4,1,4,3,1,1,4,2,4,1,2, ,1,0,0,0,0,0,0,0,4,4,2,4,2,2,6,2, ,9,2,2, ,1,1, , , ,0, , , , 
5,1,3,1,1,1, , , ,1, , , ,1,my parrot,4,4,4,3,5,3,3,1,3,3,3,0,0,0,0,0,1,12,5,1,3,5,4,4,4,2, , , , ,1,1, , , ,8, ,1, , , ,1,1, , , , , , ,2,3,1,0,1,0,3,1,0,3,1,0,0,3,2,1,1,1,1,1,1,1,4,3,2,4,1,3,4,4,3,1,1,4,2,3,2,1, ,0,1,0,0,0,0,0,0,3,2,3,1,1,1,2,1, ,8,2,2, ,1,1, , , ,0, , , , 
12,1,4,7,1,1, ,1,1, , , , , , ,6,4,4, ,5,1,2,3,3,3,3,0,0,0,0,0,1,9,5,1,1,4,3,4,4,4, , , , , , , ,1, ,8, , , , ,1, , , ,1, , , , , , , ,1,1,0,0,1,0,1,1,0,1,4,4,4,1,1,1,1,2,3,3,2,4,1,1,4,3,5,3,1,1,1,4,2,4, , ,1,0,0,0,0,0,0,0,2,2,2,2,4,4,3,1, ,8,3,2, ,2, , , , ,0, ,1, , 
13,1,3,1,1, , , , , , , , , , ,4,4,4,4,5,1,1,2,3,3,3,0,0,0,0,0,1,12,3,3,2,2,1,4,1,2,1, , , ,1,1, , , ,8, ,1, , , , , , , , , , , , , , , , , , , , , , , , , , , , , , , , , , , , , , , , , , , , , , , , , , ,999,999,999,999,999,999,999,999, , , , , , , ,1, ,10,2,1,I am in the PLC,2, , , ,1,0, , ,1,American/ Irish Decent
14,1,3,1,1,1, , , , , , , , , ,2,4,4,3,4,1,1,1,3,3,3,0,0,1,0,0,0,12,4,1,1,4,1,4,2,2,1, , , ,1,1, , , ,8, ,1, , ,1, , , ,1, , , , ,1,1,1,0,0,0,0,0,0,1,0,0,0,4,4,4,1,1,1,2,1,2,3,2,4,5,1,4,3,4, ,1,1,4,1,4,1,1, ,1,0,0,0,0,0,0,0,4,5,3,1,3,1,2,1, ,8,1,2, ,1, , , ,1,0, , , , 
15,1,4,1,1,1,1, ,1,1, , , , , ,6,4,4,2,3,3,3,1,2,2,1,0,0,0,0,0,1,11,3,1,1,2,1,2,5,5, , , , , , , ,1, ,8, , , , ,1, , , , , , , , ,1,1,2,1,1,0,1,2,1,0,0,0,0,2,1,1,1,1,1,1,1,1,3,3,3,3,1,3,1,3,2,1,1,1,1,3,2,1, ,0,0,0,0,0,0,0,1,2,3,3,1,1,1,6,1, ,9,2,2, ,2, , , ,1,0, , , , 
19,1,4,2,1, , , , ,1, , , , , ,1,4,3,2,1,3,1,2,3,2,2,0,0,0,0,0,1,11,3,3,1,4,1,4,1,1,1, , , , ,1, , , ,8, ,1, , , , , ,1,1, , , , ,1,2,2,0,1,2,1,3,0,3,2,2,2,4,4,4,1,1,1,3,3,3,1,5,5,5,1,3,1,3,1,1,1,1,3,3,3,1, ,0,0,0,0,0,1,0,0,3,5,5,4,5,3,6,1, ,8,3,2, ,2, , , , ,1,1, , , 
22,1,3,1,1,1, , ,1,1,1, , , , ,4,4,4,3,5,1,1,1,3,3,2,0,0,0,0,0,1,11,3,1,3,4,2,3,3,2,1, , , , , , , , ,8, ,1,1, , , , , , , , , , ,2,2,1,1,1,1,2,3,0,0,1,0,1,4,1,3,3,3,2,2,2,2,3,3,4,3,1,3,3,3,2,4,3,4,3,4,3,1, ,1,1,0,0,0,0,0,0,4,3,3,4,4,4,5,2, ,9,1,2, ,1, , , ,1,0, , , , 
25,1,3,1,1, ,1, , , , , , , , ,4,4,5,4,5,1,2,1,3,3,3,0,0,0,0,0,1,8,3,1,2,5,1,5,3,1,1, ,1, , , , , , ,8, ,1, , , ,1, ,1,1, , , , , , , ,0,1,0,0,0,1,0,0,0,0,4,4,4,3,2,2,2,2,3,3,3,4,3,1,3,3,2,3,5,3,5,1,5,2,2, ,0,1,0,0,0,0,0,0,4,4,3,5,3,3,1,2, ,9,2,2, ,2, , , ,1,0, , , , 
27,1,4,1,1,1, , , ,1, , , , , ,4,4,4,2,5,2,2,1,3,3,2,0,1,0,0,0,0,12,4,2,3,5,1,5,2,3, , , , , , ,1, ,sometimes during meals but not always,8, ,1, , ,1, , , , , , , , ,2,2,2,1,2,0,0,2,1,1,1,1,2,1,1,1,2,2,1,1,1,1,2,2,4,2,1,4,2,3,2,4,2,3,4,3,5,2, ,0,1,0,0,0,0,0,0,4,5,4,3,2,5,1,2, ,8,1,2, ,1, , , ,1,0, , , , 
28,1,3,1,1, , , , ,1, , , , , ,1,5,3,4,5,4,4,1,2,2,3,0,0,0,0,1,0,8,3,5,1,2,2,5,3,4, , , , , , , ,1, ,8, ,1,1, ,1, , , ,1,1, , , ,3,2,1,1,3,1,1,1,2,1,0,1,0,3,1,3,2,3,1,2,1,1,3,1,1,1,2,2,2,1,1,1,1,4,2,3,4,1, ,1,0,0,1,1,1,0,0,3,4,4,5,3,4,5,2, ,8,2,1,IEP,1, ,1, , ,0, , , , 
30,1,4,1,1,1,1, , , , , , , , ,5,4,4,4,4,2,2,2,2,3,2,0,0,0,0,0,1,12,4,1,3,4,4,4,2,4,1, ,1, , ,1, , , ,8, ,1, , , ,1, ,1, , ,1, , , , , ,1,2,1,1,3,1,1,1,0,1,3,3,3,3,3,3,1,2,2,3,3,3,3,3,2,3,2, ,3,3,3,3,3,3,1, ,1,0,0,0,0,0,0,0,4,4,4,4,4,4,2,2, ,10,3,1,i have a 504 plan that adjust to  my needs,1, , , ,1,0, , , , 
33,1,2,1,1,1,1, , , , , , , , ,3,4,5,2,5,1,1,5,2,2,2,1,0,0,0,0,0,9,4,1,2,5,1,2,5,4,1, , , , , , , , ,8,1, , , , , , , , , , , , ,3,3,2,3,3,3,3,2,0,3,2,3,3,3,3,2,3,3,3,3,2,2,4,3,4,3,2,4,1,4,4,3,3,2,4,2,5,2, ,1,0,0,0,0,0,0,0,5,5,5,5,5,5,6,2, ,9,2,2, ,2, , , ,1,0, , , , 
35,1,2,1,1,1, , , , , , , , , ,4,2,2,2,5,4,4,3,2,2,2,0,0,0,0,0,1,9,2,1,4,3,1,3,1,5, , ,1, ,1,1, , , ,8, ,1,1,1,1,1, , ,1,1, , , ,3,4,2,1,1,3,3,0,2,2,2,2,2,4,4,4,1,2,1,1,1,2,2,2,3,4,1,3,2,1,1,1,3,2,3,2,5,4, ,0,1,0,0,0,0,0,0,4,5,3,2,3,4,6,2, ,8,2,2, ,2, ,1, , ,0, , , , 
37,1,2,1,1,1, , ,1, , , , , , ,4,4,4,3,5,2,2,2,3,2,3,0,0,0,0,0,1,10,4,3,3,3,1,2,3,3,1, , , , , , , , ,7, ,1, , ,1,1, , , , , , , ,2,2,1,1,2,2,2,1,1,0,0,1,2,1,3,2,1,1,1,1,2,3,1,3,4,5,1,4,2,3,3,3,4,4,2,4,2,4, ,1,1,0,0,0,0,0,0,5,5,5,5,5,5,6,2, ,9,1,2, ,1,1, , , ,0, , , , 
38,1,3,1,1, , , , , , , , , , ,6,5,4,1,5,1,1,1,3,3,3,1,0,0,0,0,0,8,5,1,1,1,5,1,1,1, , , , , , , ,1, ,8,1, , , , , , , , , , , , ,1,1,1,0,0,0,0,3,0,0,3,0,0,1,1,1,1,1,1,1,1,1,1,1,1,1,1,1,1,1,1,1,1,5,1,1,1,4, ,0,0,0,0,0,0,0,1,1,1,1,1,1,1,6,1, ,9,2,2, ,2, , , , ,0, , ,1,Jamaican
43,1,4,1,1,1,1, , , , , , , , ,4,5,5,5,5,1,1,1,3,3,3,0,0,0,0,0,1,11,5,1,1,5,1,5,1,1, , , , ,1, , , , ,1,1, , , , , , , , , , , , ,1,3,1,0,0,0,0,0,0,0,0,0,0,3,2,3,1,1,1,1,1,1,4,4,3,4,1,4,3,3,2,1,1,4,1,1,1,1, ,1,0,0,0,0,0,0,0,1,1,1,1,1,1,1,1, ,8,1,2, ,2, , , , ,1,1, , , 
44,1,3,1,1,1, ,1, , , , , , , ,4,5,3,4,4,2,1,1,1,2,3,0,0,0,0,0,1,11, , , , , , , , , , , , , , , , , , , , , , , , , , , , , , , , , , , , , , , , , , , , , , , , , , , , , , , , , , , , , , , , , , , , , , ,999,999,999,999,999,999,999,999, , , , , , , ,1, ,9,4,2, ,2, , , , ,1,1, , , 
48,1,3,8,1,1, ,1, , , , , , , ,5,5,5,5,5,5,5,5,3,3,3,0,0,0,0,0,1,10,3,3,2,5,2,3,4,1,1, ,1, , , , , , ,8, , ,1, , , , , , , , , , , , , ,1,0,0,1,2,0,0,1,0,0,3,3,3,3,3,3,2,2,2,1,4,3,5,1,2,1,1,4,2,1,3,3,3,3,1, ,0,1,0,0,0,1,0,0,3,3,3,3,3,3,2,2, ,8,1,2, ,2, , , ,1,0, , , , 
49,1,3,1,1,1, , ,1, , , , , , ,5,5,4,3,5,1,3,2,3,3,3,0,1,0,0,0,0,10,3,3,1,5,2,5,1,2,1, ,1, ,1, , , , ,6, ,1, , , ,1,1, , , , , , ,1,2,2,1,1,0,1,2,1,2,2,1,2,4,4,4,3,3,2,2,2,2,3,2,4,3,1,4,3,1,3,1,4,2,4,3,4,1, ,0,1,1,1,0,0,1,0,5,5,4,4,4,4,4,2, ,8,1,2, ,1, , , ,1,0, , , , 
51,1,2,1,1,1,1, ,1, ,1, , ,1,twin brother,4,2,2,2,2,4,1,2,2,2,2,0,1,0,0,1,0,11,3,2,1,3,4,2,3,3,1, , , , ,1, , , ,7, , ,1, ,1, , , , , , , , ,1,1,1,3,3,3,3,0,3,2,0,1,3,3,4,4,4,4,4,1,1,1,3,2,4,4,4,4,3,2,2,4,1,3,4,4,2,1, ,1,0,0,0,1,1,0,0,5,5,5,5,5,5,2,2, ,10,2,2, ,2, , , ,1,0, , , , 
53,1,4,1,1,1, , , ,1, , , , , ,4,5,3,2,4,4,4,2,3,3,2,0,1,1,1,0,0,11,2,4,3, ,2,5,4,2, , , , , , , ,1, ,8,1, , , , , , , , , , , , , , , , , , , , , , , , , , , , , , , , , , , , , , , , , , , , , , , , , , , ,999,999,999,999,999,999,999,999, , , , , , , ,1, ,9,2,2, ,2, , , ,1,0, , , , 
54,1,4,1,1,1,1, , , , , , , , ,4,4,4,3,5,2,2,2,3,3,3,0,0,0,0,0,1,11,4,1,2,4,3,2,4,2,1, ,1, , , , , , ,8, ,1, , , ,1, , , , , , , ,3,3,1,1,2,1,2,3,1,2,2,1,1,1,2,2,1,2,1,1,1,1,4,3,4,5,1,3,4,4,4,1,1,3,1,4,3,1, ,1,1,0,0,1,0,0,0,4,1,1,1,4,3,5,1, ,9,2,2, ,2, , , ,1,0, , , , 
57,1,3,1,1,1, ,1, , , , , , , ,4,5,5,4,5,2,2,2,3,2,2,0,0,0,0,0,1,10,5,5,5,5,5,5,5,5,1,1, , ,1, , , , ,5, ,1, , , , , , , , , , , , , , , , , , , , , , , , , , , , , , , , , , , , , , , , , , , , , , , , , , ,999,999,999,999,999,999,999,999, , , , , , , ,1, ,8,2,2, ,2, , , ,1,0, , , , 
60,1,4,2,1,1, , , ,1, , , , , ,4,5,5,4,4,1,2,2,3,3,3,0,0,0,0,0,1,14,5,5,5,5,1,5,1,5,1, , , ,1,1, , , ,8, , , , , , , , , , , ,1,No one,1,1,1,0,0,0,0,0,0,0,0,0,0,1,1,1,1,1,1,1,1,2,1,5,5,1,1,5,5,5,5,1,1,5,1,5,5,1, ,1,0,0,0,0,0,0,0,1,1,1,1,1,4,1,1, ,10,3,2, ,1, , , , ,1,1, , , 
61,1,4,1,1,1, , ,1, ,1, , , , ,4,3,5,3,5,1,1,1,1,3,3,0,0,0,0,0,1,12,3,1,4,3,1,2,3,1,1, ,1, , , , , , ,8, , , , , ,1, , , , , ,1,people who came into school,2,1,1,0,0,0,0,2,0,0,1,0,0,1,2,2,1,1,1,1,1,1,3,2,1,1,1,1,4,3,2,1,1,4,2,3,3,1, ,1,1,0,0,0,0,0,0,3,3,3,3,3,4,6,1, ,9,2,2, ,2, , , ,1,0, , , , 
63,1,3,1,1, , , ,1,1, , , ,1,Sometimes i'm at my dad house,4,4,3,2,3,3,4,1,2,2,1,0,0,0,0,0,1,10,3,2,3,3,1,3,5,2, , , , , ,1, , , ,8, , , , ,1, , , ,1, , ,1,my self, , , , , , , , , , , , , , , , , , , , , , , , , , , , , , , , , , , , , , , ,999,999,999,999,999,999,999,999, , , , , , , ,1, ,8,5,2, ,2, ,1, , ,0, , , , 
65,1,4,1,1,1,1,1, , , , , , , ,2,4,4,4,5,3,3,2,3,3,3,0,0,0,0,0,1,9,5,1,2,5,3,3,3,3, , , , , , , ,1, ,8, ,1,1, ,1, , , , , , , , ,1,1,1,1,1,0,1,2,0,1,0,0,0,3,3,3,3,3,3,1,1,1,3,4,4,3,1,4,3,1,3,2,1,4,3,2,4,1, ,1,1,0,0,0,0,0,0,5,2,5,5,1,4,2,2, ,9,1,2, ,2, , , ,1,0, , , , 
66,1,3,1,1, ,1, , , , , , , , ,4,4,3,2,5,2,4,2,3,2,2,0,0,0,1,0,0,12,2,1,3,2,2,1,4,2, , , , , , , ,1, ,8, ,1, , , ,1, , , , , , , ,3,2,2,0,2,1,1,3,0,2,3,2,1,4,4,4,3,2,2,3,2,3,4,1,1,3,1,3,1,4,4,2,1,2,4,3,5,2, ,1,0,0,0,0,0,0,0,2,2,3,3,4,2,6,2, ,8,1,2, ,2, , , ,1,0, , , , 
68,1,5,1,1,1, , ,1, , , , , , ,5,5,5,4,5,3,2,1,3,3,3,0,0,0,0,0,1,12,2,1,3,5,1,2,4,2,1, , , , ,1, ,1, ,8, , ,1, ,1, , , , , , , , ,1,3,1,0,0,0,0,0,0,0,0,0,0,1,1,1,1,1,1,1,1,1,1,1,1,1,1,1,1,1,1,1,1,5,1,5,1,1, ,0,1,0,0,0,0,0,1,4,1,1,1,1,3,1,2, ,10,1,2, ,2, , , ,1,0, , , , 
69,1,5,1,1,1, ,1, , ,1, , , , ,5,5,5,5,5,1,1,1,3,3,3,0,0,0,0,0,1,12,5,3,2,5,5,5,2,2,1, , , , ,1, , , ,7, ,1, ,1, ,1,1, , , , , , ,4,4,1,0,0,0,0,1,0,1,0,1,0,1,1,1,1,1,1,1,1,1,1,4,4,4,1,4,4,4,4,1,4,4,3,4,2,1, ,1,1,0,0,0,0,0,0,5,5,4,5,4,5,1,2, ,10,1,2, ,1, , , ,1,0, , , , 
70,1,3,1,1,1, , , , , , , , , ,5,4,3,4,5,1,3,3,3,3,3,0,0,0,0,0,1,10,4,1,1,3,1,4,2,3,1, , , , , , , , ,8, ,1, , , ,1,1, , , , , , ,2,3,1,0,0,0,0,0,0,0,0,0,0,3,2,3,2,1,1,1,2,1,4,3,3,4,1,5,4,2,4,1,1,5,2,5,2,1, ,1,1,0,0,0,0,0,0,4,1,1,2,2,1,1,1, ,10,1,2, ,2, , , ,1,0, , , , 
71,1,3,1, , , ,1, , ,1, ,1,1,mom  dad,4,3,5,2,5,5,1,1,3,3,3,0,0,0,0,1,0,12,5,2,2,1,1,3,1,1, , , , , , , ,1, ,8, , ,1, ,1, , , , , , , , ,1,1,4,3,3,1,3,0,3,3,0,3,3,4,4,4,4,4,4,3,3,3,5,5,5,5,5,5,5,5,5,5,5,5,5,5,5,2, ,1,0,0,0,1,1,0,0,5,5,5,5,5,5,1,2, ,8,2,1,IEP,1, , , , ,0, , ,1,i don't know
72,1,3,1,1,1, , ,1, , , , , , ,5,4,5,4,5,2,2,3,3,3,3,0,0,0,0,1,1,11,5,2,3,4,2,3,4,3, , ,1, , , , ,1, ,8, ,1, , ,1, , , , , , , , , , , ,1,1,2,2,0,1,2,2,2,2,3,3,3,3,2,3,1,2,1,3,4,4,4,2,4,2,1,3,2,2,1,5,2,4,1, ,1,1,0,0,0,0,0,0,5,4,4,4,4,4,2,2, ,8,1,2, ,1, , , ,1,0, , , , 
74,1,2,1,1,1, ,1, , , , , , , ,4,4,3,3,5,3,3,2,2,2,2,0,1,0,0,0,0,12,5,1,2,5,1,2,4,3,1, ,1, , ,1, , , ,7, , ,1, ,1, , , , , , , , ,2,2,1,1,1,0,2,3,0,0,1,0,1,1,1,3,3,3,2,1,1,1,3,3,4,4,4,4,4,1,4,4,3,2, ,4,4,1, ,1,0,0,0,0,0,0,0,2,2,4,2,4,4,3,2, ,8,1,2, ,1, , , ,1,0, , , , 
75,1,2,1,1,1,1, , ,1, , , , , ,4,3,3,3,5,1,1,4,3,3,2,0,0,0,0,0,1,11,4,3,2,5,5,4,2,1,1, , , , , , , , ,8, ,1,1, ,1, , , , , , , , ,3,4,1,0,3,1,2,3,0,0,2,0,2,4,4,3,2,1,1,2,1,2,3,2,4,5,1,4,4,3,4,2,1,2,1,2,1,1, ,0,0,0,0,0,0,0,1,3,2,2,2,4,4,4,2, ,8,2,2, ,1, , , ,1,0, , , , 
76,1,3,1,1,1,1, , , , , , , , ,4,4,2,4,3,2,2,1,3,2,2,0,0,0,0,0,1,9,4,2,3,3,2,3,4,2, , , , , , , ,1, ,8, ,1,1,1,1, , , , ,1, , , , , , ,1,1,0,1,2,1,1,2,1,1, , , , , , , , , , , , , , , , , , , , , , , , ,4, ,1,0,0,0,0,0,0,0,3,2,2,2,2,4,2,2, ,9,4,2, ,2, , , , ,1,1, , , 
77,1,5,6,1,1, , ,1, , , , , , ,3,5,5,5,5,2,2,1,2,3,3,0,0,0,0,0,1,8,5,5,1,5,5,5,3,2,1, , , , , , , , ,2, ,1, , , , , , , , , , , , , , , , , , , , , , , , , , , , , , , , , , , , , , , , , , , , , , , , , , ,999,999,999,999,999,999,999,999, , , , , , , ,2, ,10,1,2, ,2,1, , , ,0, , , , 
78,1,3,1,1,1,1, , , , , , , , ,6,5,5,3,5,2,2,2,3,3,3,0,0,0,0,0,1,8,1,1,2,5,1,3,5,4,1, ,1, , , , , , ,8,1, , , , , , , , , , , , ,1,3, ,0,0,0,0,3,0,0,0,0,0,1,2,1,1,1,1,1,1,1,1,1,1,1,1,1,1,1,1,1,1,5,1,5,1,1, ,1,0,0,0,0,0,0,0,2,2,2,2,2,2,2,1, ,8,2,2, ,1, , , ,1,0, , , , 
80,1,4,1,1,1, ,1,1,1, , , , , ,4,5,5,5,5,1,1,1,3,3,3,0,0,0,0,0,1,11,4,2,2,4,2,3,4,3,1, , , , , , , , ,8, ,1, , ,1,1, , ,1, , , , ,2,3,2,0,1,0,0,0,0,1,1,0,0,3,3,2,2,2,2,1,1,1,3,2,3,5,1,3,4,4,3,1,1,3,2,3,2,1, ,1,0,0,1,0,0,0,0,3,1,2,2,2,2,5,1, ,10,2,2, ,2, , , ,1,0, , , , 
82,1,4,1,1,1, , ,1, , , , , , ,4,4,5,4,4,1,1,1,3,3,3,0,0,0,0,0,1,12,3,1,2,3,2,1,1,1,1, ,1, , ,1, , , ,2, ,1, , , ,1, ,1, , , , , ,2,3,2,0,1,0,0,2,0,1,0,1,1,3,3,3,1,1,1,2,2,2,4,3,4,4,1,1,4,3,4,1,1,4,2,3,3,1, ,0,1,0,0,0,0,0,0,4,3,2,3,4,3,2,1, ,10,2,2, ,2,1, , ,1,0, , , , 
86,1,3,1,1,1, ,1, , , , , , , ,5,5,5,4,5,3,3,1,3,3,3,1,0,0,0,0,0,13,1,2,2,5,2,4,4,3, , ,1, , , , , , ,8, ,1,1,1,1,1, , , , , , , ,2,5,1,0,0,0,0,0,0,0,0,0,0,2,1,2,1,1,1,1,1,1,1,2,1,2,5,1,1,1,1,1,1,3,1,3,1,1, ,1,1,0,0,0,0,0,0,5,4,1,4,1,4, ,1, ,8,2,2, ,1, , , ,1,0, , , , 
87,1,3,4,1,1, , , ,1, , , , , ,4,4,4,3,5,2,2,1,3,2,2,0,1,0,0,0,0,12,2,1,1,5,1,3,4,4,1, , , , , , , , ,8, , ,1, ,1, , , ,1, , , , ,2,2,1,2,1,0,1,2,1,0,1,0,0,2,2,1,3,1,1, ,2,1,4,3,2,5,5,2,3,2,2,5,5,4,1,2,1,1, ,1,0,1,0,0,0,0,0,2,2,3,2,2,2,5,1, ,10,4,2, ,2, ,1, , ,0, , , , 
88,1,3,1,1, , ,1, , , , , , , ,5,4,5,4,5,3,3,3,3,3,3,0,0,0,0,0,1,10,4,1,1,5,1,1,2,2,1, , , , , , , , ,6, , ,1, ,1, , , , , , , , ,1,1,1,1,0,0,1,0,0,1,0,0,0,4,4,3,2,2,1,1,1,1,4,3,4,2,1,2,4,2,2,2,2,4,1,4,1,1, ,1,0,0,1,0,0,0,0,5,2,2,4,1,4,3,1, ,10,1,2, ,2, , , ,1,0, , , , 
90,1,3,1,1, , ,1, ,1, , , , , ,5,5,4,4,4,3,3,2,3,3,3,0,0,0,0,0,1,11,4,4,2,4,2,3,4,2, , , , ,1,1, , , ,5, ,1, , , , ,1,1, , , , , ,2,2,1,0,0,0,0,3,0,0,1,1,1,2,1,1,1,1,1,1,1,1,1,3,3,3,1,3,3,3,3,1,1,4,1,4,1,1, ,1,0,0,0,0,0,0,0,2,2,2,2,2,2,5,1, ,8,2,2, ,2, , , ,1,1, , , , 
91,1,1,1,1,1, , , ,1, , , , , ,5,4,2,1,3,4,4,1,2,3,3,0,1,0,0,0,0,10,4,1,3,5,2,2,4,2, , , , , ,1, , , ,8, ,1, , , ,1,1, , , , , , , , , , , , , , , , , , , , , , , , , , , , , , , , , , , , , , , , , , , ,1, ,999,999,999,999,999,999,999,999, , , , , , , ,1, ,9,2,2, ,1, , , , ,1,1, , , 
92,1,4,1,1,1,1, ,1, , , , , , ,4,5,4,2,5,3,3,1,3,3,3,0,0,0,0,0,1,12,4,5,3,5,2,5,2,2,1, , , , ,1, , , ,8,1, ,1, ,1, , , , , , , , ,1,3,1,0,1,0,3,0,1,1,0,0,0,3,1,3,3,2,1,1,1,1,4,4,4,4,1,3,3,3,3,1,1,4,2,4,2,1, ,1,0,0,0,0,0,0,0,4,4,3,3,3,4,3,1, ,9,1,2, ,2, , , ,1,0, , , , 
93,1,4,1,1,1,1, , , , , , ,1,dog,5,5,4,3,5,2,2,2,2,2,3,0,1,0,0,0,0,11,4,5,2,5,3,5,3,2,1, ,1, , , , , , ,8, , ,1,1,1,1, , ,1,1, , , ,2,3,2,1,1,0,1,1,1,0,0,0,0,3,2,2,2,3,2,2,2,2,2,4,4,4,1,3,4,2,2,2,3,3,4,3,2,1, ,1,0,0,1,0,0,0,0,4,2,3,4,2,4,2,1, ,8,2,2, ,1, , , , ,0, , ,1, 
94,1,3,1,1,1,1, ,1, , , , , , ,4,4,5,5,5,1,1,1,3,3,3,0,0,0,0,0,1,13,4,1,2,4,1,1,5,4,1, ,1, , , , , , ,8,1, , , , , , , , , , , , ,1,3,1,0,1,0,0,2,0,0,0,2,0,3,4,4,3,2,1,2,2,2,4,3,4,5,1,4,3,4,2,1,1,4,2,1,3,1, ,1,1,0,1,0,0,0,0,5,1,2,2,1,2,6,1, ,10,1,2, ,1, , , ,1,0, , , , 
96,1,2,1,1,1, , , , , , , , , ,4,4,5,4,4,2,2,3,3,3,2,0,1,0,0,0,0,10,5,1,3,4,1,3,3,1,1, , , , ,1, , , ,4, ,1,1,1,1,1, , , , , , , , , , ,2,1,1,0,1,2,0,0,2,1,4,3,4,2,2,2,1,1,2,1, ,4,4,1,4,3,2,1,1,4,3,4,2,3,1, ,0,1,0,1,0,0,0,0,5,5,5,5,5,5,5,2, ,10,1,2, ,1, , , ,1,0, , , , 
97,1,3,1,1,1,1,1, , , , , , , ,4,3,4,2,5,3,3,1,3,2,2,0,0,0,0,0,1,13,4,1,3,4,4,4,1,1,1, , , , ,1, , , ,4, ,1,1, ,1, , , ,1, , , , , , , ,0,2,0,1,0,0,0,2,0,1,3,3,3,3,3,3,2,2,2,4,2,4,4,1,3,1,1,1,1,1,3,4,2,3,1, ,1,1,0,0,0,1,0,0,5,3,4,2,3,2,5,2, ,8,1,2, ,2, , , ,1,0, , , , 
98,1,5,1,1,1,1,1, ,1, , , , , ,5,5,5,4,5,1,1,1,3,3,3,0,0,0,0,0,1,0,5,2,3,5,5,5,4,4,1, ,1, , ,1, , , ,3, , ,1, ,1, , , ,1, , , , , , , ,0,1,0,3,2,0,1,1,0,0,2,1,1,3,3,3,1,2,1,1,4,4,4,1,3,4,3,4,1,1,3,2,3,3,1, ,0,0,0,0,0,0,0,1,4,4,4,4,3,4,2,2, ,8,1,2, ,2, , , ,1,0, , , , 
99,1,3,1,1,1,1,1, , , , , , , ,4,4,5,5,5,1,1,1,3,3,3,0,0,0,0,0,1,13,4,5,2,5,5,5,1,1,1, ,1, , ,1, , , ,5, ,1,1, ,1,1,1, , , , , , ,4,4,2,1,1,0,0,0,0,0,1,1,0,3,3,2,1,3,1,2,2,1,1,4,4,5,1,3,2,2,3,5,4,4,1,4,1,4, ,1,0,0,0,0,0,0,0,4,4,4,4,1,3,1,2, ,8,1,2, ,1, , , ,1,0, , , , 
100,1,3,1,1, , ,1, , , , , , , ,2,5,5,5,5,3,3,1,3,3,3,0,1,0,0,0,0,10,5,1,2,4,1,2,2,2,1, , , ,1, , , , ,8, ,1,1,1,1,1,1,1, , , , , , , , ,0,0,0,0,3,0,0,3,0,0,2,3,2,2,2,2,1,1,1,4,1,1,1,1,4,4,1,4,1,1,5,1,5,1,1, ,0,0,0,0,0,1,0,0,2,2,2,2,2,2,1,2, ,10,1,2, ,2, , , ,1,0, , , , 
101,1,2,1,1,1, , ,1, , , , , , ,4,4,1,3,4,4,5,3,3,3,3,0,0,0,0,0,1,11,1,1,1,1,1,1,4,4, , ,1, , , , , , ,8, , , , , , , , ,1,1, , , ,1,4,1,3,2,0,3,2,2,3,1,0,2,2,1,3,3,3,3,1,1,1,4,1,1,1,1,3,4,1,1,1,1,4,3,3,4,1, ,0,1,0,0,0,0,0,0,5,5,5,2,5,5,5,2, ,10,1,2, ,1, , , ,1,0, , , , 
102,1,3,1,1,1, , , ,1, , , , , ,5,4,3,3,5,1,2,1,3,3,3,0,1,0,0,0,0,13,4,4,3,4,5,4,3,1,1, , , ,1,1, , , ,4, ,1, , , , ,1, , , , ,1,Family Friends, , , ,0,1,0,1,1,2,1,1,1,0,4,3,3,2,3,1,2,1,1,3,2,4,4,1,4,4,3,2,1,3,3,1,3,2,1, ,0,1,0,1,0,1,0,0,4,3,5,3,5,4,2,2, ,10,1,1,I can get extra time on my tests for my anxiety. I forget the name of the plan.,2, , , ,1,0, , , , 
103,1,4,1,1,1, , , ,1, , , , , ,4,5,4,5,5,1,1,1,3,3,3,0,0,0,0,0,1,11,5,1,1,5,2,1,4,4, , , , , , , ,1, ,8, ,1, ,1,1,1,1, , , , , , , , , ,1,1,0,0,0,1,0,0,0,2,3,2,2,3,3,2,1,1,1,3,4,4,4,1,4,4,1,4,1,1,4,3,3,1,1, ,0,1,0,0,0,0,0,0,5,4,2,2,1,4,1,2, ,10,1,2, ,2, , , ,1,0, , , , 
105,1,3,1,1,1,1, , , , , , , , ,4,4,5,3,4,2,3,1,3,3,3,0,0,0,0,0,1,11,4,2,1,5,1,4,2,3,1, ,1, , , , , , ,8, ,1, , , ,1, , , ,1, , , ,1,2,2,0,0,0,0,1,1,0,0,0,0,3,3,3,1,1,1,1,1,1,3,2,4,4,1,3,3,4,2,1,1,3,1,1,3,1, ,1,1,0,1,1,1,0,0,3,4,2,1,1,2,5,1, ,10,1,2, ,1, , , ,1,0, , , , 
107,1,4,1,1,1, , ,1,1, , , ,1,Dog,4,4,4,3,5,2,1,1,2,2,2,0,0,0,0,0,1,11,4,3,3,4,1,3,3,3, , , , , , ,1,1,Not supposed to during meals but sometimes I might check,8, ,1,1,1,1,1,1,1,1,1, , , , , , ,2,2,0,1,3,0,1,1,2,1,2,3,3,3,3,3,2,2,2,4,3,4,4,4,4,1,1,3,3,5,3,4,3,4,1, ,0,1,0,0,0,0,0,0,4,3,3,4,2,3,2,2, ,10,2,2, ,2, , , ,1,0, , , , 
108,1,3,1,1, , , , ,1,1, , , , ,4,4,4,3,3,3,2,2,2,3,2,0,1,0,0,0,0,12,3,2,2,4,1,4,2,3,1, ,1, , ,1, , , ,4, ,1,1,1,1,1, , ,1, , , , ,2,4,2,2,2,3,3,1,3,3,2,3,2,2,3,3,1,1,2,3,3,3,3,3,4,3,1,4,3,4,3,1,2,4,2,4,3,1, ,0,1,0,1,0,0,0,0,4,5,3,4,5,5,1,3,Attack Helicopter,9,2,2, ,2,1, ,1,1,0, , , , 
109,1,5,1,1,1,1, , , , , , , , ,5,5,5,5,5,3,3,3,3,3,3,0,1,0,0,0,0,11,4,4,3,5,4,4,3,1,1, , , ,1,1, , , ,4, , ,1, ,1, , ,1, , , , , , , , ,1,2,0,2,1,2,2,1,0,1,2,2,2,1,1,1,1,1,1,1,4,4,4,1,4,4,1,3,3,3,5,1,4,1,1, ,1,1,0,1,0,1,0,0,5,4,3,5,3,5,2,2, ,10,2,2, ,1, , , ,1,0, , , , 
110,1,1,1,1,1, , ,1, , , , , , ,4,3,1,2,4,1,1,1,3,2,1,0,1,0,0,0,0,13,5,1,2,5,3,4,3,1, , , , , , , ,1, ,8, ,1, , , ,1, , , , , , , ,1,4,1,3,3,2,3,2,2,0,1, ,3,4,3,4,2,2,1,2,1,3,1,1,4,2,2,4,1,2,1,3,2,3,1,3,3,4, ,1,1,0,0,0,1,0,0,5,3,4,4,4,4,5,2, ,8,2,2, ,1, , , ,1,0, , , , 
111,1,3,1,1, ,1,1, ,1, , , , , ,3,4,5,3,5,2,2,2,2,2,2,0,0,0,0,0,1,10,3,1,1,5,1,4,1,4, , , , , , , ,1, ,8, , , , ,1, , , , , , , , ,1,2,1,0,1,3,2,2,1,3,2,2,3,2,2,3,1,4,1,2,2,2,3,4,3,5,1,3,3,3,3,1,4,2,4,1,5,1, ,1,0,0,1,1,0,0,0,4,3,4,5,5,4,2,2, ,10,2,2, ,2, ,1, , ,0, , , , 
115,1,5,1,1,1,1, , , , , , , , ,4,5,4,4,5,3,2,1,2,2,2,0,0,0,0,0,1,11,5,1,2,4,1,1,4,3, , , , , , , ,1, ,8, , ,1, ,1, , , , , , , , , , , ,0,3,1,2,1,0,0,0,1,1,1,1,1, ,1,1,1,1,1,4,4,4,4,1,4,4,1,4,1,1,3,4,3,5,1, ,1,1,1,1,1,0,0,0,4,2,5,3,3,5,2,2, ,10,1,2, ,1, , , ,1,0, , , , 
116,1,5,1,1,1,1, ,1, , , , , , ,3,5,4,4,4,3,3,1,3,3,2,0,0,0,0,0,1,12,3,1,1,5,2,4,5,5, , , , , , , ,1, ,3, , ,1, ,1, , , ,1,1, , , ,3,4,2,0,0,0,3,3,2, ,0,0,0,3,1,1,1,1,1,1,1,1,1,4,4,4,1,3,4,4,4,1,1,5,1,5,1,1, ,1,1,0,1,0,0,0,0,4,1,1,3,1,4,2,1, ,10,1,2, ,2, , , ,1,0, , , , 
117,1,3,3,1,1, , ,1, , , , , , ,4,4,5,3,5,1,2,2,3,3,3,0,1,0,0,0,0,11,3,1,1,4,1,1,5,2,1, ,1, , , , , , ,8, ,1,1, ,1, , , ,1, , , , ,1,1,1,0,0,1,0,0,0,0,2,2,1,3,3,3,2,2,2,2,2,2,3,1,4,1,1,5,1,1,3,1,1,4,2,4,4,1, ,1,1,0,0,0,1,0,0,1,1,4,3,5,5,5,2, ,8,2,2, ,1, , , ,1,0, , , , 
119,1,5,1,1, ,1,1, , , , , , , ,5,5,4,4,5,3,2,1,3,2,2,0,0,0,0,1,1,11,5,1,1,4,2,3,3,2,1, , , , , , , , ,8, ,1, , , ,1,1, , , , , , ,1,2,1,0,0,0,0,1,0,0,0,0,0,3,2,2,2,3,2,1,2,1,3,4,4,2,2,3,3,2,4,3,3,5,3,4,2,1, ,1,0,0,1,0,0,0,0,4,3,3,3,3,4,2,2, ,8,1,2, ,2, , , ,1,0, , , , 
120,1,5,1,1, , , ,1, , , , , , ,6,4,4,2,3,4,4,2,2,3,2,0,0,0,0,0,1,9,5,1,3,4,1,2,1,4, , , , , , , ,1, ,8, , ,1, ,1, , , , ,1, , , ,1,1,2,0,1,1,0,0,0,0,2,3,0,2,3,1,1,1,1,1,1,1,3,4,2,2,2,4,4,4,3,1,1,1,3,4,1,1, ,0,0,0,0,0,0,0,1,2,2,2,4,5,2,6,1, ,9,2,2, ,2, ,1, , ,0, , , , 
121,1,3,1,1,1,1, , , , , , , , ,5,4,3,3,5,2,2,1,2,2,2,0,0,0,0,0,1,12, ,1,2,4,3,2,3,2, , ,1, , , , , , ,2, ,1,1, , , ,1, , , , , , ,1,2,3,2,1,3,1,2,2,3,2,3,1,2,2,2,2,3,3,2,2,3,4,2,3,3,3,4,3,2,2,2,3,3,2,3,3,1, ,1,1,0,0,1,0,0,0,4,5,3,4,4,5,5,2, ,8,2,2, ,1, , , ,1,0, , , , 
122,1,5,1,1,1, , ,1, , , , , , ,5,4,5,3,5,1,2,2,3,3,2,0,0,0,0,0,1,11,4,1,3,5,1,4,1,1,1, ,1, ,1,1, , , ,3, ,1, , , ,1, , , , , , , ,3,4,2,0,0,0,1,1,1,0,0,0,0,2,1,1,1,1,1,1,2,1,5,4,4,2,5,5,3,3,4,5,4,5,1,5,1,1, ,0,1,0,0,0,0,0,0,4,1,1,5,3,3,1,2, ,6,1,2, ,1, , , ,1,0, , , , 
123,1,2,1,1,1, , , , , , , ,1,Twin sister,4,5,5,5,5,1,1,2,3,3,2,0,0,0,0,0,1,12,4,2,3,5,5,4,2,2,1,1, , , ,1, , , ,5, ,1, , , ,1, , , , , , , ,2,4,1,1,2,0,0,1,0,1,1,1,0,3,3,3,3,3,2,1,2,2,2,4,4,4,1,3,4,1,4,1,1,3,4,3,4,1, ,1,1,0,1,0,0,0,0,4,2,4,1,2,4,1,2, ,8,2,2, ,1, , , ,1,0, , , , 
125,1,2,1,1,1, , , , , , , ,1,pets,4,3,4,3,4,1,3,3,3,3,2,0,0,0,0,0,1,13,4,3,3,5,2,3,2,1,1, , , ,1,1, , , ,3, ,1, , ,1,1, , , , , , , ,1,1,2,0,0,1,0,1,0,2,1,0,0,3,4,4,1,1,1,1,2,1,4,2,3,3,1,4,4,5,2,1,1,3,4,2,3,1, ,1,0,0,0,0,0,0,0,4,3,3,4,3,5,1,2, ,9,1,2, ,1, , , ,1,0, , , , 
127,1,3,1,1,1, ,1, , , , , , , ,4,4,4,4,5,1,2,1,3,2,2,0,0,0,0,0,1,9,4,2,1,5,2,4,3,3,1, , , , , , ,1, ,8, ,1,1, ,1, , , , , , , , ,1,1,1,0,0,0,0,2,0,0,1,1,0,3,3,3,1,1,1,2,2,2,3,4,4,5,1,4,4,1,3,1,3,3,3,3,4,1, ,0,1,0,1,0,0,0,0,5,3,2,2,3,2,3,2, ,8,1,2, ,2, , , ,1,0, , , , 
128,1,4,1,1, , , , , , , , ,1,step dad,4,4,4,3,3,3,3,2,3,2,3,0,0,0,0,0,1,8,4,1,2,4,1,3,4,4, , , , , , , ,1, ,8, , , , ,1, , , , , , , , ,1,1,2,1,1,1,2,3,0,0,2,2,1,4,3,4,4,4,4,2,3,3,3,1,3,5,1,3,4,1,4,5,1,1,5,1,5,1, ,0,0,1,1,0,1,0,0,4,4,3,2,3,4,5,2, ,9,1,2, ,2, , , ,1,0, , , , 
129,1,3,1,1,1, , , ,1, , , , , ,5,4,4,4,5,2,2,2,3,2,2,0,0,0,0,0,1,11,2,2,3,4,2,3,2,3,1, ,1, , , , , , ,4, , ,1, ,1, , , ,1, , , , , , , ,0,0,0,0,1,0,0,0,1,2,2,1,1,1,1,1,1,1,1,1,4,4,5,1,4,4,1,4,1,1,4,1,4,1,1, ,1,0,0,0,0,0,0,0,3,1,4,4,1,5,2,1, ,8,2,2, ,1, , , ,1,0, , , , 
130,1,2,4,1,1,1,1, , , , , , , ,4,2,1,1,4,1,1,2,3,2,3,0,0,0,0,0,1,13,5,1,2,1,1,2,5,1, , , , , , , ,1, ,8, , ,1, , , , , ,1, , , , ,1,2,3,0,2,2,2,2,2,1,2,3,2,4,4,4,2,1,1,2,2,2,4,2,4,4,1,4,3,2,2,2,2,3,2,3,4,4, ,0,1,0,0,0,0,0,0,4,4,3,3,3,3,6,2, ,10,2,2, ,2, ,1, , ,0, , , , 
131,1,3,1,1, ,1, , , , , , , , ,5,3,3,2,5,1,1,1,3,3,3,0,1,0,0,0,0,9,1,1,1,5,1,4,5,3, , , , , , , ,1, ,8, ,1, , , , , , ,1, , , , ,1,3,1,0,3,2,2,1,1,2,1,2,2,3,3,3,1,1,1,2,1,1,4,3,2,4,1,3,3,5,3,1,1,4,2,2,4,2, ,1,0,0,0,0,0,0,0,1,3,1,3,4,1,4,2, ,9,1,2, ,2,1, , , ,0, , , , 
132,1,2,1,1,1, , , , , , , ,1,niece/ family friend,4,3,2,1,4,2,2,1,3,2,3,0,1,0,0,0,0,9,3,1,2,1,1,3,3,4, , , , , ,1, , , ,8,1, , , , , , , , , , , , ,2,2,2,1,1,0,1,3,1,0,3,2,0,3,3,4,2,2,1,2,1,1,4,1,3,1,1,1,1,1,1,1,4,2,4,2,4,1, ,1,0,0,0,0,0,0,0,3,2,2,4,4,4,6,2, ,8,1,2, ,2, ,1, , ,0, , ,1,Haitian
134,1,3,1,1,1, , , ,1, , , , , ,6,5,3,1,3,1,1,1,3,3,3,0,0,0,0,0,1,10,5,1,3,4,1,1,2,3,1, ,1, , , , , , ,8, , , , ,1,1, , , , , , , ,1,1,1,2,2,0, , ,0,1,1,0,2,1,2,1,1,1,1,1,1,1,1,3,1,1,1,5,1,5,3,1,1,4,1,3,1,1, ,1,0,0,0,0,0,0,0,3,3,2,5,3,4,3,1, ,8,4,2, ,1, ,1, , ,0, , , , 
136,1,2,1,1,1, , , , , , , , , ,3,3,4,4,4,1,1,1,3,2,2,0,0,0,0,0,1,9,5,1,2,4,2,4,3,2,1, ,1, , ,1, , , ,7, ,1,1,1,1,1,1,1, , , , , ,1,1,1,0,0,1,0,2,1,0,2,2,0,4,3,3,3,3,2,1,2,2,3,2,3,1,1,3,1,1,2,1,1,2,1,2,3,1, ,0,0,0,0,1,1,0,0,4,3,4,4,3,4,1,2, ,8,2,2, ,1, ,1, ,1,0,1, , , 
137,1,4,3,1,1, ,1,1,1, , , , , ,5,4,4,3,5,3,3,3,3,3,3,0,0,0,0,0,1,12,5,1,2,5,2,5,4,1,1, , , , ,1, , , ,8, ,1,1,1,1, , , , , , , , ,1,4,1,0,0,0,2,1,0,0,0,0,0,4,4,3,2,2,2,1,1,2,3,3,4,5,5,3,3,3,2,1,1,5,2,4,2,1, ,0,1,0,1,0,1,0,0,4,2,2,2,2,3,1,1, ,10,3,2, ,2, , , , ,0,1, , , 
138,1,3,1,1, , , , , , , , ,1,dog,1,4,4,2,5,3,3,3,3,2,3,1,0,0,0,0,0,10,5,3,3,5,5,5,3,2,1, , , , ,1, , , ,3, ,1,1, ,1, , , , , , , , ,1,3,2,0,1,1,1,1,0,0,2,1,0,4,4,4,1,1,1,1,2,1,5,1,3,5,1,5,5,1,1,1,1,2,3,2,3,1, ,0,1,1,1,1,0,0,0,2,4,2,2,3,5,6,2, ,8,2,2, ,2, , , , ,1,1, , , 
139,1,2,1,1, , , , ,1, , , , , ,2,3,3,3,4,1,4,5,3,2,3,1,1,0,1,0,0,11,4,4,5,3,4,3,1,2,1,1,1,1,1,1,1, ,any time she feels,1, ,1, , , , , , , , , , , , , , ,1,2,2,1,1,2,3,1,3,1,4,4,4,2,3,1,2,3,3, , , , , , , , , , , , , , , , , ,0,1,0,0,0,1,0,0,5,5,5,3,4,5,5,2, ,9,4,1,an iep and a 504,2,1, , ,1,0, , , , 
140,1,4,3,1,1, , ,1, , , , , , ,1,5,5,4,5,2,3,1,2,2,2,0,1,0,0,0,0,10,4,3,5,5,1,3,5,3, , ,1, , ,1, , , ,8, , ,1, ,1, , , ,1, , , , ,3,5,2,1,2,1,3,0,2,1,0,2,0,3,4,3,2,2,1,2,1,2,3,4,4,5,1,4,3,4,4,1,1,2,4,3,5,2, ,1,1,0,0,0,0,0,0,5,2,4,5,5,5,2,2, ,8,4,2, ,2, , , ,1,0,1, , , 
141,1,4,1,1,1, , , , , , , , , ,5,4,2,2,3,2,2,2,3,2,2,0,1,0,1,0,0,12,3,4,2,3,3,3,3,2,1, , , , , ,1, ,past 11 oclock,8, , ,1, , , , , , , , , , ,2,1,1,0,3,0,0,3,0,1,1,0,0,2,2,2,2,2,2,2,2,2,3,3,3,3,3,3,3,3,3,3,3,3,3,3,3, , ,1,1,0,1,0,0,0,0,4,4,4,4,2,3,5,1, ,8,2,2, ,2, , , ,1,0, , , , 
143,1,3,1,1,1, ,1, , , , , , , ,4,5,4,3,5,2,2,2,2,2,2,0,0,0,0,0,1,11,4,1,2,5,2,3,3,2, , , , , , ,1, , ,5, ,1,1, ,1,1, , ,1, , , , , , , , , , , , , , , , , , , , , , , , , , , , , , , , , , , , , , , , , , , ,999,999,999,999,999,999,999,999, , , , , , , ,1, ,10,3,2, ,2, , , ,1,0, , , , 
148,1,3,1,1,1, ,1, , , , , , , ,4,4,4,5,5,1,2,2,3,2,2,0,0,0,0,0,1,11,5,2,2,3,3,3,1,2,1, ,1, , , , , , ,4, ,1,1, ,1,1, , , , , , , ,2,1,1,0,2,0,1,3,0,0,1,0,1,3,2,2,1,2,2,1,2,1,2,1,3,5,1,3,3,1,3,1,2,4,2,3,2,1, ,1,1,0,0,0,0,0,0,4,3,4,2,2,3,2,2, ,8,1,2, ,1, , , ,1,0, , , , 
149,1,2,1,1,1,1, , ,1, , , , , ,4,5,4,4,4,2,2,1,3,3,2,0,1,0,0,0,0,11,4,1,2,4,1,4,2,2,1, ,1, , , , , , ,8, ,1, , , ,1, , , , , , , , , , ,2,0,0,2,0,2,0,0,3,3,3,4,4,4,4,4,2,3,3,4,4,2,2,1,3,2,1,3,4,1,2,5,2,5,1, ,1,1,0,0,0,0,0,0,5,1,1,5,4,5,6,2, ,8,1,2, ,2, , , ,1,0, , , , 
151,1,3,1,1,1,1,1, , , , , , , ,4,4,4,4,5,1,3,3,3,2,1,0,0,0,0,0,1,11,4,1,2,4,2,2,1,3,1, ,1, , , , , , ,8, ,1,1, ,1, , , , , , , , ,2,3,1,0,3,0,1,3,1,0,1,2,2,4,3,3,2,2,2,2,2,2,1,3,4,5,1,4,2,3,3,4,4,3,4,3,4,1, ,1,0,0,1,0,0,0,0,5,4,4,4,4,4,5,2, ,8,2,2, ,1, , , ,1,0, , , , 
153,1,3,1,1,1,1, , , , , , , , ,4,5,5,3,5,1,1,1,3,3,3,0,0,0,0,0,1,8,5,3,2,1,1,3,4,3,1, ,1, , ,1, , , ,8, ,1, , , , , , , , , , , ,3,3,1,0,3,0,0,0,0,0,0,0,0,4,4,4,1,1,1,1,2,2,3,3,3,4,1,4,3,4,2,1,1,4,1,4,2,1, ,1,0,1,1,0,0,0,0,5,3,1,5,3,4,5,1, ,8,1,2, ,2, , , ,1,0, , , , 
154,1,3,1,1,1, , ,1, , , , , , ,5,5,5,3,4,1,1,1,3,3,3,0,0,0,0,0,1,10,3,1,2,4,1,1,5,5, , , , , , , ,1, ,8,1, , , ,1, , , , , , , , ,2,3,2,0,3,0,0,3,0,0,0,0,0,2,2,2,2,2,2,2,2,2,3,3,3,3,3,3,3,3,3,3,3,1,4,4,5,1, ,1,0,1,1,0,0,0,0,4,1,2,3,1,1,6,2, ,10,6,2, ,2, , , ,1,0, , , , 
155,1,3,1,1,1, ,1, , , , , , , ,3,4,3,2,4,4,4,3,3,3,3,999,999,999,999,999,999,12,3,3,4,2,1,1,1,3, , ,1, , ,1, , , ,6, , , , ,1, , , , , , , , ,1,1,2,0,1,0,1,0,0,0,0,2,0,3,3,3,3,3,3,1,2,2,1,3,4,3,1,3,4,3,3,1,2,4,3,2,2,1, ,0,0,0,0,0,0,0,1,2,2,4,4,2,4,4,1, ,9,2,2, ,2,1, , , ,0, , , , 
157,1,3,1, ,1, , , , , , , , , ,5,3,2,1,1,1,4,3,2,2,2,1,1,1,0,0,0,14,3,3,4,5,1,5,1,1,1, ,1, ,1,1, , , ,8, ,1,1,1,1,1, , , , , , , ,2,4,1,1,2,2,2,1,2,1,2,1,1,1,1,1,1,1,1,1,2,1,1,4,4,4,2,2,2,2,2,2,3,5,5,1,5,5,nothing,0,0,0,0,0,0,1,0,1,2,2,2,2,3,3,2, ,8,2,1,i don't know,1, , , , ,1, , ,1,Puerto Rican
159,1,5,1,1,1, ,1,1, , , , , , ,5,5,5,4,3,1,2,1,3,3,3,0,0,0,0,0,1,11,4,5,2,4,4,3,4,2,1, ,1, , ,1, , , ,6, ,1, , , ,1, , , , , , , ,2,3,1,1,3,0,1,2,1,2,2,0,2,3,3,3,1,1,1,1,1,1,4,3,4,5,1,2,2,2,4,1,1,4,3,4,2,1, ,0,1,0,0,0,0,0,0,3,2,2,3,1,5,2,1, ,8,1,2, ,2, , , ,1,0, , , , 
160,1,3,1,1,1,1, , , , , , , , ,4,4,4,2,4,2,1,1,3,3,3,0,0,0,0,0,1,11,3,1,2,4,1,2,4,3,1, ,1, , , , , , ,8, , , , ,1, , , ,1, , , , ,1,2,2,1,1,0,0,0,0,2,0,0,0,3,1,3,1,1,1,1,1,1,2,3,3,5,1,4,4,4,2,1,1,3,1,2,4,1, ,1,1,0,0,0,0,0,0,4,1,1,1,1,4,5,1, ,9,1,2, ,2, , , ,1,0, , , , 
161,1,2,1,1,1, , , , , , , , , ,6,4,4,3,4,3,2,1,3,3,3,1,0,0,0,0,0,10,4,1,2,4,1,1,3,3, , ,1, , ,1, , , ,8, , , , , , , , , , , ,1,I don't remember,2,4,3,0,0,0,1,0,1,0,1,0,1,4,3,3,2,1,2,1,1,1,3,3,5,5,5,2,2,4,2,2,1,5,1,5,1,4, ,0,1,0,0,0,0,0,0,4,4,2,3,2,3,6,1, ,9,2,2, ,2, , , ,1,0, , , , 
162,1,3,3,1,1, , , , , , , , , ,3,5,5,5,5,3,2,1,3,2,3,0,0,0,0,0,1,11,5,4,1,1,3,5,1,1, , , , , ,1, , , ,4, , , , , , , , , , , , , ,3,1,2,0,0,0,1,3,0,0,1,0,0,4,4,4,1,1,1,2,2,2,1,1,2,5,5,5,1,1,1,5,5,4,1,5,1,1, ,1,0,0,1,0,0,0,0,1,1,1,1,1,4,1,1, ,9,2,2, ,2, , , , ,0,1, , , 
165,1,3,1,1,1,1, , , , , , , , ,5,4,4,3,3,2,2,2,3,3,3,0,0,0,0,0,1,8,4,1,1,4,1,1,2,3, , , , ,1,1, , , ,8, , , , ,1, , , ,1, , , , , , , , , , , , , , , , , , , , , , , , , , , , , , , , , , , , , , , , , , , ,999,999,999,999,999,999,999,999, , , , , , , ,2, ,8,2,2, ,2, , , ,1,0, , , , 
167,1,1,1,1,1, ,1, , , ,1,1, , ,5,3,2,3,5,4,3,1,2,2,2,0,1,0,0,0,0,12,4,1,4,5,1,2,4,1, , , , , ,1, , , ,6, ,1,1, ,1, , , , , , , , , , , , , , , , , , , , , , , , , , , , , , , , , , , , , , , , , , , , , , , ,999,999,999,999,999,999,999,999, , , , , , , ,2, ,10,4,2, ,1, ,1, , ,0, , , , 
168,1,4,1,1,1, , , ,1, , , , , ,3,4,2,3,1,1,1,1,3,3,3,0,0,0,0,0,1,11,1,1,2,2,1,1,1,5, , ,1, ,1,1, , , ,8, , , , , ,1,1, ,1,1, , , ,1,4,4, ,2,2,0,2,1,1,2,2,0,4,4,3,3,1,1,2,1,1,4,3,3,4,2,5,1,4,5,1,1,3,1,1,3,5,everyone,1,1,0,1,0,1,1,0,4,4,2,2,4,1,2,1, ,8,2,2, ,1, , , , ,1,1, , , 
170,1,4,1,1,1, , , ,1, , , , , ,5,5,4,4,5,3,3,2,3,3,3,0,0,0,0,0,1,12,4,1,2,5,1,2,3,3,1, , , , , , , , ,6, ,1,1, ,1,1,1,1,1,1,1, , ,1,1,2,1,2,2,2,2,2,0,2,2,3,3,3,4,2,2,1,3,3,3,4,3,4,3,1,4,4,3,2,1,1,3,4,2,3,3, ,1,0,0,0,0,0,0,0,4,5,5,4,4,5,5,1, ,9,1,2, ,2, , , ,1,0, , , , 
173,1,3,1,1,1, , ,1,1, , , , , ,5,4,3,2,5,4,4,3,3,2,3,0,0,0,0,0,1,13,4,1,3,1,1,3,2,3, , , ,1, , , , , ,8, ,1, , , ,1, , , , , , , ,2,3,3, , , , , , , , , , , , , , , , , , , , , , , , , , , , , , ,4,2,4,2,1, ,1,0,0,1,0,0,1,0,4,4,4,4,3,2,5,1, ,9,3, , ,1, , , ,1,0, , , , 
174,1,4,1,1,1, , ,1,1, , , , , ,6,5,4,3,5,1,2,2,1,2,2,1,0,0,0,0,0,12,5,5,5,5,1,5,2,1,1, , , , , , , , ,8, ,1, ,1,1,1, , ,1, , , , ,4,4,1,3,3,1,3,3,0,1,2,2,3,2,3,3,1,1,1,3,3,3,4,1,4,4,1,4,1,1,3,1,4,3,4,4,4,1, ,1,0,0,0,0,0,0,0,5,5,5,5,5,5,6,2, ,8,1,2, ,2, , , ,1,1, , , , 
175,1,3,1, , , ,1, , , ,1, , , ,2,5,5,5,5,5,1,5,3, , ,0,0,0,0,0,1,13,1,1,1,1,1,1,1,1,1, ,1, ,1,1, , , ,6, ,1, , , , , , , , , , , ,5,5,1,0,0,0,0,3,0,0,0,0,0,4,1,1,1,1,1,3,1,3,4,4,4,4, ,4, ,4,4, ,4,5,1,5,1,1, ,0,1,0,0,0,0,0,0,5,5,5,5,5,5,1,2, ,10,2,1,i have a smaller english class,1, , , ,1,0, , , , 
178,1,3,2,1,1, , ,1, , , , , , ,2,4,3,3,5,4,5,3,2,1,1,0,0,0,0,0,1,14,4,1,3,4,1,4,4,1, , ,1, , ,1, , , ,6, ,1, , , , ,1, ,1, , , , ,1,1,2,0,1,0,0,0,0,0,1,0,0,4,4,2,2,2,2,3,3,3,4,1,4,5,1,3,3,3,3,1,1,4,2,2,2,1, ,1,0,0,0,0,1,0,0,4,5,2,3,2,4,6,1, ,9,3,2, ,2, , , , ,1,1, , , 
180,1,4,1,1,1, , , , , , , , , ,5,5,5,4,5,3,1,2,3,3,3,0,0,0,0,0,1,11,5,1,2,5,2,5,4,2, , , , , , , ,1, ,5, , , , ,1, , , ,1,1, , , ,1,3,2,0,0,0,0,1,1,0,1,1,1,2,2,3,3,2,2,2,2,1,3,3,3,4,1,2,3,2,3,1,1,4,2,4,2,1, ,1,1,0,0,0,0,0,0,5,2,4,4,2,5,5,1, ,10,2,2, ,2, , , ,1,0,1, , , 
183,1,2,1,1, , , , ,1, , , , , ,4,3,3,2,4,3,4,2,2,2,2,0,0,0,0,0,1,12,4,1,5,5,1,5,4,3, , , , , , , ,1, ,8, ,1,1, , , , , , , , , , ,1,1,3,0,1,2,2,2,0,2,2,2,3,3,3,3,3,3,2,2,2,3,3,2,4,2,2,4,2,4,5,5,1,2,3,1,4,2, ,0,0,1,1,0,1,1,0,4,4,3,4,3,2,5,1, ,9,5,1, ,2, , , ,1,0, , , , 
184,1,4,1,1,1, , , ,1, , , , , ,4,5,4,5,5,2,2,2,3,3,3,0,0,0,0,0,1,10,2,1,3,5,2,4,3,2,1, ,1, , , , , , ,8, , ,1, ,1, , , ,1,1, , , ,1,1,1,0,0,0,0,3,0,0,0,0,0,2,1,1,1,1,1,1,1,1,3,3,3,1,1,3,4,3,2,1,1,5,5,5,1,1, ,1,1,0,0,0,1,0,0,4,1,1,3,1,1,5,1, ,10,1,2, ,1, , , ,1,0, , , , 
185,1,3,1,1,1, , ,1, , , , , , ,5,5,4,5,5,1,1,1,3,3,3,0,0,0,0,0,1,10,4,3,3,3,3,3,2,2,1, , , , , , , , ,5, , , , , , , , , , , , , , , , , , , , , , , , , , , , , , , , , , , , , , , , , , , , , , , , , , , , ,999,999,999,999,999,999,999,999, , , , , , , ,1, ,10,1,2, ,1, , , ,1,0, , , , 
186,1,3,1,1,1,1,1, , , , , , , ,6,4,2,2,3,1,1,2,3,2,2,0,0,0,1,0,0,12,4,1,1,2,2,3,2,1, ,1, ,1,1,1, , , ,1, ,1, , , , , , , , , , , ,1,1,1,0,2,1,1, ,0,2,3,0,2,4,4,4,1,1,1,2,2,2,4,2,3,3,1,3,3,4,3,1,2,4,1,3,2,1, ,1,0,0,0,0,0,0,0,3,2,2,2,3,2,6,1, ,8,4,1,Academic Support,2, , , ,1,0, , , , 
187,1,3,1,1,1,1,1, , , , , , , ,4,4,3,3,4,1,1,1,1,1,1,0,0,0,0,0,1,0,5,1,3,5,2,3,4,3,1, , , ,1,1, , , ,8, , ,1, , , , , , , , , , ,3,4,2,1,2,3,3,1,1,0,2,2,1,3,4,4,2,2,2,2,2,2,4,2,3,5,1,4,3,4,2,1,1,4,1,2,1,4, ,0,1,0,0,0,0,0,0,3,4,2,2,3,3,5,1, ,8,1,2, ,2, , , ,1,0, , , , 
188,1,3,1,1, ,1, , , , , , , , ,4,4,4,4,5,3,3,1,2,2,2,1,1,0,0,0,0,12,5,3,3,1,5,3,3,3, , , , , , ,1, , ,8, , , , , , , , , , , ,1, ,5,5, ,1,1,1,1,2,1,1,2,1,1,1,1,1,1,1,1,2,2,2,3,3,3,3,3,3,3,3,3,3,3,1,1,1,1,4, ,0,0,0,0,0,1,0,0,3,3,3,3,3,3,4,1, ,9,5,2, ,2, , , ,1,0, , , , 
190,1,3,7,1, , , , , , , , , , ,6,3,3,3,5,3,2,2,2,2,1,0,1,0,0,0,0,9,4,1,2,5,1,2,5,3, , , , , , , ,1, ,8,1, , , , ,1,1, , , , , , ,1,1,1,3,3,3,3,2,0,3,2,3,3,4,3,3,3,3,4,2,1,2,3,1,4,4,2,4,1,4,4,4,5,3,5,2,5,2, ,1,0,0,0,0,0,0,0,5,5,5,5,5,5,2,2, ,9,6,2, ,2, , , , ,0, ,1,1,morrocan
193,1,3,1,1,1, , , , , , , , , ,5,4,5,5,5,2,2,1,3,3,3,0,0,0,0,1,0,12,3,2,4,5,3,3,1,2,1, , , , , , , , ,8, , ,1, ,1, , , , , , , , , , , ,0,1,0,1,2,1,1,2,1,0,4,4,4,4,4,4,2,1,1,3,3,3,1,1,4,2,1,1,1,1,2,5,2,5,1, ,1,1,0,0,0,0,0,0,3,3,3,3,3,3,2,2, ,8,1, , ,2, , , , ,1,1, , , 
194,1,5,1,1,1,1, , , , , , , , ,3,4,4,3,5,3,2,1,3,3,3,1,0,0,0,0,0,11,5,2,2,3,3,2,2,2,1, ,1, , , , , , ,8, ,1, , , , ,1, , , , , , ,2,3,2,1,1,0,2,1,1,0,0,0,0,1,3,1,1,1,1,1,1,1,1,4,4,4,2,4,4,3,4,3,2,3,4,3,4,1, ,1,0,0,0,0,0,0,0,2,2,2,4,3,4,1,2, ,8,2,2, ,2, , ,1, ,0, , , , 
195,1,1,1,1, ,1, , , , , , , , ,6,2,3,2,4,4,2,1,2,2,1,0,1,0,1,0,0,11,4,1,4,2,1,3,3,1, , , , , , , ,1, ,8, ,1, , ,1, , , , , , , , , , , ,2,3,2,2,3,0,0,1,2,1,4,3,4,4,4,2,1,2,2,4,1,2,3,1,2,1,1,1,3,2,3,4,3,4,2, ,1,0,0,0,1,1,0,0,4,3,2,2,5,1,5,2, ,8,5,2, ,2, , , ,1,0, , , , 
196,1,3,1,1, , , , , , , , , , ,4,2,3,3,5,3,3,1,2,1,1,1,1,0,0,0,0,10,4,2,4,5,5,5,1,3,1, ,1, ,1,1, , , ,8, ,1,1,1,1,1,1, , ,1, , , ,5, , ,0,1,2,1,1,0,3,1,1,1,2,4,1,3,2,4,3,2,1, , , , , , , , , , , , , , , , , ,0,1,0,0,0,0,0,0,2,3,2,2,5,3,2,2, ,8,3,1, ,2, , , ,1,0,1,1, , 
199,1,4,6,1,1, , , ,1, , , , , ,5,3,3,1,5,2,4,3,3,2,3,0,0,0,0,0,1,11,4,1,1,1,1,1,5,2, , , , , ,1, , , ,8, , , , ,1, , , ,1,1, , , ,1,2,1,3,3,1,1,2,1,3,2,0,3,2,2,4,3,3,2,1,1,1,4,2,3,4,1,4,4,3,2,1,4,3,5,3,5,1, ,1,0,0,0,0,0,0,0,4,4,3,4,4,4,6,2, ,10,1,2, ,2, , , ,1,0, , , , 
204,1,2,1,1,1, , , ,1, , , , , ,4,2,3,2,4,1,2,2,3,3,3,0,0,0,0,0,1,11,3,1,3,4,1,3,3,4,1, ,1, , , , , , ,6, , ,1, ,1, , , ,1,1, , , ,3,4,2,2,0,3,1,2,2,2,3,2,0,4,4,4,4,3,1,2,3,3,4,3,4, ,1,4,2,4,3,1,3,1,1,1,1,2, ,1,0,0,0,0,0,0,0,4,4,4,4,4,4,5,2, ,8,2,2, ,1, , , ,1,0, , , , 
205,1,3,1,1,1, ,1, , , , , , , ,4,4,4,2,5,2,2,1,3,3,3,0,0,0,0,0,1,11,1,1,2,2,1,1,5,1,1, , , , , , , , ,8, , ,1, ,1, , , , , , , , ,1,1,1,0,1,2,3,2,0,3,0,3,2,3,4,4,4,1,3,3,3,3,4,1,3,4,1,4,2,1,1,1,1,2,5,1,5,1, ,1,1,0,0,0,0,0,0,5,4,2,3,4,4,6,2, ,9,1,2, ,1, , , ,1,0, , , , 
206,1,4,1,1,1,1, , , , , , , , ,2,4,2,3,4,2,2,3,3,3,3,0,0,1,1,0,0,9,5,1,2,3,1,2,5,3, , , , ,1, , , , ,8, ,1, , , ,1, , ,1,1, , , ,1,5,1,0,2,1,2,2,0,0,0,2,1,3,4,3,2,3,2,3,3,3,4,4,4,5,1,4,1,4,4,5,4,4,2,3,2,5, ,1,0,0,1,0,1,0,0,3,2,2,4,4,1,4,2, ,10,1,2, ,1, ,1, , ,0, , , , 
207,1,4,1,1,1,1, , , , , , , , ,5,4,4,3,4,2,3,2,2,2,2,0,1,0,0,0,0,11,5,1,3,5,2,2,3,2, ,1,1,1,1, , , , ,8, , ,1, ,1, , , , , , , , ,3,4,2,1,2,1,2,0,3,2,0,1,1,3,2,2,2,2,2,2,1,1,4,2,4,1,1,4,4,4,4, ,2,3,4,3,3,1, ,1,0,0,1,0,1,0,0,4,2,3,3,3,3,1,2, ,8,2,2, ,1, , , ,1,0, , , , 
208,1,4,1,1,1, , , ,1, , , , , ,5,4,5,2,5,1,2,1,3,3,3,0,0,0,0,0,1,12,4,2,2,4,3,2,3,2,1, ,1, , ,1, , , ,8, , ,1, ,1, , , ,1,1, , , ,3,4,1,1,3,2,2,0,1,2,1,1,1,3,2,2,3,3,2,2,2,3,4,3,4,5,1,4,3,2,3,3,4,3,4,3,3,1, ,1,1,1,0,0,1,1,0,5,3,2,5,4,4,5,2, ,10,2,2, ,1, , , ,1,0, , , , 
210,1,2,1,1,1, , , ,1, ,1,1, , ,3,3,2,1,2,5,5,1,1,1,2,0,0,0,0,0,1,11,1,1,3,3,1,1,3,2, , ,1, , , , , , ,7,1, , , , , , , , , , , , , , , ,2,2,2,2,3,2,3,3,2,2,3,2,3,2,2,2,2,3,3,3,3,3,3,3,3,3,3,3,3,3,4,4,4,4,2, ,1,0,0,0,0,0,0,0,4,4,4,3,4,4,6,2, ,8,6,2, ,2, ,1, ,1,0, , , , 
211,1,3,1,1,1, , , , , , , , , ,5,4,2,3,5,1,1,1,2,3,2,0,0,0,0,0,1,11,4,2,1,5,3,4,4,2, , , , , , , ,1, ,8, ,1, , ,1,1,1, ,1, , , , , , , ,0,1,0,0,1,0,1,1,0,0,2,2,3,1,1,1,1,1,1,4,2,3,3,1,4,3,1,3,1,1,4,2,1,2,1, ,0,1,0,1,0,0,0,0,4,4,4,3,2,3,3,2, ,9,1,2, ,2, , , ,1,0, , , , 
212,1,2,4,1, , , ,1,1, , , , , ,6,5,4,4,5,3,3,1,2,2,1,0,1,0,1,0,0,9,4,2,4,5,1,4,2,2, , , , ,1,1, , , ,5, , , , ,1, , , , , , , , ,3,3,2,0,1,0,1,2,0,1,1,0,0,4,4,4,2,2,1,3,1,1,3,3,2,3,1,4,2,3,3,1,2,3,2,3,2,4, ,1,0,0,0,0,0,0,0,3,3,3,3,3,3,1,2, ,9,2, , ,2, ,1, , ,0, , , , 
213,1,4,1,1,1, , , ,1, , , , , ,5,4,3,3,4,1,2,1,3,3,3,0,0,0,0,0,1,8,4,2,3,4,2,3,3,3,1,1, , , ,1, , , ,5, ,1,1,1,1,1,1,1,1, ,1, , , , , , , , , , , , , , , , , , , , , , , , , , , , , , , , , , , , , , , , , ,0,0,0,0,0,0,0,1, , , , , , , ,1, ,10,3,2, ,1, ,1, , ,0, , , , 
216,1,3,1,1,1, , , ,1, , , ,1,dog,6,3,5,3,5,4,4,3,2,2,1,0,1,0,0,1,0,11,4,2,4,1,2,2,2,3, ,1,1, , , , , , ,7, ,1, , , ,1, , ,1,1, , , ,2,4,2,0,2,0,0,2,0,0,0,1,1,3,3,2,1,1,1,2,2,2,2,2,2,4,1,4,3,4,3,4,3,4,2,3,2,1, ,1,0,0,0,0,0,0,0,1,3,4,1,2,2,2,1, ,8,1,1,socialization group,2, , , ,1,0, , , , 
217,1,3,1,1,1, , ,1, , , , , , ,5,5,4,3,5,1,1,1,3,2,2,0,0,0,0,0,1,11,4,1,2,3,2,1,3,3,1, ,1, , , , , , ,8, ,1, , , ,1, , , , , , , ,2,2,1,0,1,0,1,3,0,0,1,0,1,3,3,1,1,1,1,1,1,1,2,1,4,5,1,4,4,3,3,1,4,3,1,3,1,1, ,1,1,0,0,0,0,0,0,4,4,1,5,4,5,5,2, ,8,2,2, ,1, , , ,1,0, , , , 
219,1,3,1,1, , , ,1, , , , , , ,5,4,3,2,5,3,4,2,3,3,3,0,0,0,0,0,1,10,3,1,2,3,1,5,4,4, , ,1, , , , , , ,8, ,1,1,1,1,1,1,1,1,1,1, , ,2,1,1,1,1,0,3,0,0,0,1,1,0,3,3,3,1,2,2,3,1,2,2,2,4,5,1,3,4,3,4,1,2,4,1,4,2,1, ,1,1,1,1,1,0,0,0,4,4,1,3,3,2,5,1, ,8,1,2, ,1, , , ,1,1,1, , , 
220,1,3,1,1,1, , , , , , , , , ,2,4,5,2,5,1,1,1,2,1,1,0,0,0,0,0,1,12,5,1,3,2,1,2,5,4,1, , , , , , , , ,8, , ,1, , , , , , , , , , ,1,1,1,0,0,0,1,0,0,0,0,0,0,1,1,1,1,1,1,1,1,1,5,5,4,5,5,5,4,4,3,5,5,3,4,4,2,1, ,1,0,0,0,1,0,0,0,1,1,1,1,1,3,6,1, ,10,4,2, ,2, , , ,1,0, , , , 
221,1,3,1,1, ,1, , ,1, , , , , ,4,4,5,3,5,1,2,2,3,3,3,0,0,0,0,0,1,12,5,2,2,4,2,4,2,3, , , , , , , ,1, ,4, ,1, , , ,1, , , , , , , ,2,3,3,1,2,0,1,2,0,2,1,0,0,3,3,1,3,2,3,2,2,2,3,3,4,4,1,4,3,4,4,2,3,4,3,3,2,1, ,0,1,0,0,0,0,0,0,4,4,2,2,1,2,2,1, ,9,2,2, ,1, , , ,1,0, , , , 
222,1,5,1,1,1, ,1, , , , , , , ,4,4,5,3,4,1,2,2,2,2,2,0,0,0,0,1,0,13,2,1,3,2,1,1,1,1,1, ,1, , , , , , ,8, ,1,1, ,1,1,1, , ,1, , , ,3,2,1,1,3,2,1,3,0,2,3,3,2,2,2,2,1,1,1,1,1,3,4,1,1,3,1,3,1,1,1,1,1,3,1,1,2,3, ,1,0,0,0,1,1,0,0,4,1,4,1,4,4,6,2, ,8,3,1," reading, academic support, consoling",2, , , , ,1, , ,1,Hispanic
224,1,2,1,1,1,1,1, , , , , , , ,5,3,2,3,5,2,2,2,3,3,3,0,0,0,0,0,1,12,3,1,2,4,1,3,3,1, , , , , , , ,1, ,8, ,1, , , ,1, , , , , , , , , , ,1,3, ,1,2,1,1,1,1,2,3,1,3,2,1,1,1,2,1,3,2,4,3,1,2,2,1,3,1,4,4,2,3,2,1, ,1,1,0,1,1,1,0,0,4,2,2,4,4,4,5,2, ,10,1,2, ,2, , , ,1,0, , , , 
225,1,3,1,1,1,1,1, , , , , , , ,4,5,5,5,5,1,1,1,3,3,3,0,0,0,0,0,1,13,4,1,1,3,1,2,1,1,1, , , , ,1, , , ,5, ,1, , , ,1, , , , , , , ,3,3,2,0,0,0,0,1,0,0,0,0,0,3,1,1,1,1,1,1,1,1,1,4,4,5,1,4,3,3,4,1,1, , , , , , ,1,1,0,1,0,0,0,0,1,1,1,1,1,1,3,2, ,9,2,2, ,2, , , ,1,0, , , , 
226,1,3,1,1,1, , ,1, , , , , , ,4,4,4,4,5,3,1,1,2,2,2,0,0,0,0,0,1,10,4,1,2,5,2,3,4,3, , ,1, ,1,1, , , ,6, ,1, ,1, ,1,1, , ,1, , , ,1,2,1,3,1,0,1,3,1,2,2,1,1,4,3,3,3,3,3,2,2,3,3,2,3,3,1,5,3,3,3,3,1,2,3,2,4,1, ,1,0,0,1,0,1,1,0,2,5,5,5,5,5,3,2, ,9,4,2, ,1, , , ,1,0, , , , 
236,1,3,1,1,1,1, ,1,1, , , , , ,3,5,5,3,5,2,2,1,3,2,2,0,0,0,0,0,1,10,5,1,3,3,2,1,3,1,1, ,1, , , , , , ,8,1, , , , , , , , , , , , ,1,2,2,0,1,2,3,1,1,0,2,2,3,1,2,3,4,3,3,1,2,3,1,2,3,4,5,4,3,2,1,2,3,1,2,3,4,1, ,0,0,0,0,0,1,0,0,1,1,2,3,4,5, ,1, ,8,4,1,I do academic support,2, , , ,1,0, , , , 
237,1,2,1,1,1, ,1, , , , , ,1,dog,4,4,3,3,5,4,4,4,3,3,3,0,0,0,0,0,1,9,4,1,3,4,3,3,2,4, , , , , ,1, , , ,4, ,1,1,1,1, , , ,1, , , , ,1,2,1,0,1,0,0,0,0,0,1,2,0,1,1,3,3,2,1,1,2,2,2,3,4,4,1,3,4,3,4,1,1,4,1,4,2,1, ,1,0,0,0,0,0,0,0,4,2,4,3,4,3,6,1, ,8,1,2, ,2, , , ,1,0, , , , 
238,1,3,1,1,1,1, , , , , , , , ,4,5,5,5,5,1,1,1,3,3,3,0,0,0,0,0,1,11,5,1,1,5,1,3,2,2,1, , , , , , , , ,8, ,1,1, ,1, , , , , , , , ,1,3,1,0,0,0,0,0,0,1,0,0,0,1,1,1,1,1,1,1,1,1,3,4,4,4,1,3,4,3,4,1,1,4,1,4,1,1, ,1,1,0,1,0,0,0,0,4,4,2,3,1,2,1,1, ,9,1,2, ,1, , , ,1,0, , , , 
247,1,3,1,1,1, , ,1, ,1, , , , ,3,4,4,4,4,2,3,3,2,2,2,0,0,0,0,0,1,10,4,1,2,3,2,1,5,5,1, , , , , , , , ,8, ,1, , ,1, , , , , , , , ,1,1,3,1,2,0,1,2,0,2,2,0,1,4,2,3,3,4,2,1,2,1,4,1,2,1,1,1,1,4,2,4,1,3,3,4,4,2, ,1,0,0,1,0,0,0,0,4,2,2,3,3,4,2,2, ,9,2,2, ,2, , , ,1,0, , , , 
248,1,5,1,1,1, ,1, , , , , ,1,My dog molly,4,5,5,5,5,3,2,2,3,2,2,0,0,0,0,0,1,12,5,2,3,5,4,4,3,1, , , , , , , ,1, ,8, ,1,1, ,1, , , , , , , , ,1,1,1,0,0,0,0,3,0,0,0,0,0,2,1,1,1,1,1,1,1,1,1,3,3,3,2,3,3,1,2,1,1,5,1,4,1,1, ,1,1,0,0,0,0,0,0,4,3,3,3,3,4,3,2, ,10,1,1,I have adhd.,1, , , ,1,0, , , , 
250,1,4,1,1,1,1,1, , , , , , , ,4,5,5,5,5,1,1,1,3,3,3,0,0,0,0,0,1,11,3,1,2,3,2,3,3,1, , , , , , , ,1, ,8, , ,1, ,1, , , , , , , , , , , ,0,0,0,0,3,0,1,0,0,0,2,2,1,1,1,1,1,1,1,2,3,4,4,2,3,3,3,3,3,3,5,2,4,2,1, ,0,0,0,0,0,0,0,1,4,3,3,3,3,3,3,1, ,9,1,2, ,2, , , ,1,0, , , , 
252,1,4,1,1,1, , ,1, ,1, , ,1,cat,5,4,5,4,5,2,2,1,3,3,2,0,0,0,0,0,1,10,4,2,2,3,2,4,3,2,1, ,1, ,1,1, , , ,5, ,1, , ,1, , , ,1, , , , ,3,3,1,1,2,0,1,2,1,2,0,0,1,4,4,2,1,1,1,2,1,3,4,3,4,4,1,3,2,3,2,1,1,4,3,2,3,5,"Attracted to all genders/no preference, Pansexual.",1,1,0,0,0,0,0,0,5,5,2,3,1,1,2,2, ,8,1,2, ,2, , , ,1,0, , , , 
254,1,3,1,1,1,1, , , , , , ,1,twin sister,4,4,5,4,5,1,1,1,3,3,2,0,0,0,0,0,1,12,4,3,1,5,1,4,1,1,1,1, , ,1,1, , , ,4, ,1,1,1, ,1,1, , , , , , ,1,3,2,0,1,0,0,0,0,0,1,0,0,3,1,2,1,1,1,1,1,1,1,4,4,5,5,3,4,2,4,5,3,4,1,3,1,1, ,1,1,0,1,0,0,0,0,3,1,2,1,1,3,5,2, ,9,2,2, ,1, , , ,1,0, , , , 
255,1,3,1,1,1, , ,1,1, , , , , ,4,4,2,4,4,4,3,2,3,2,2,1,0,0,0,0,0,9,4,3,4,4,1,2,3,3, , , , , ,1, , , ,8, , , , ,1, , , , , , , , ,3,3,3,2,2,2,2,1,0,2,1,2,2,3,4,4,4,4,2,2,3,3,4,3,4,1,1,4,4,3,4,3,4,3,2,3,3,4, ,1,0,0,0,0,0,0,0,4,3,3,4,3,4,1,2, ,8,1,2, ,1, , , ,1,1,1, , , 
256,1,3,1,1,1, , , , , , , , , ,4,5,5,5,5,1,1,1,2,2,2,0,0,0,0,0,1,10,2,1,3,5,1,1,3,3,1, , , , , , , , ,8, , ,1, ,1, , , ,1,1, , , ,1,4,1,0,3,0,1,0,0,0,0,0,1,4,3,4,2,3,1,1,1,1,1,4,4,2,1,4,4,4,3,2,1,4,2,4,2,1, ,1,1,0,0,0,0,0,0,2,4,4,3,1,3,1,1, ,8,1,2, ,1, , , ,1,0, , , , 
257,1,3,1,1, , , , , , , , , , ,4,4,2,2,5,4,4,3,2,2,2,0,0,0,0,0,1,8,4,1,1,3,4,2,3,3, , ,1, , , , , , ,8, ,1, , ,1, , , , , , , , ,2,2,1,2,3,0,1,3,0,1,1,1,1,4,4,4,4,4,4,2,3,3,1,3,4,1,3,3,1,4,2,2,4,3,4,4,5,2, ,1,1,0,0,0,0,0,0,4,3,3,3,4,4,6,2, ,8,4,2, ,2, , , , ,1,1, , , 
258,1,4,1,1,1, , ,1, , , , , , ,4,4,4,4,5,2,2,1,3,3,3,0,0,0,0,0,1,13,4,1,3,5,1,3,4,3, , , , , , , ,1, ,8, ,1,1,1,1,1, ,1,1,1, , , , , , ,1,1,1,0,1,0,1,1,0,1,4,4,4,3,3,3,1,2,1,3,4,4,4,2,4,4,1,4,3,3,4,2,4,2,1, ,1,1,0,0,0,0,0,0,5,5,5,5,5,5,2,2, ,10,1,2, ,1, , , ,1,0, , , , 
259,1,3,7,1,1, ,1, , , , , , , ,1,4,2,1,5,3,4,3,3,3,2,0,1,0,1,0,0,10,5,1,1,3,1,1,5,2, , , , , , , ,1, ,8, , ,1, , , , , , , , , , ,1,3,2,1,2,1,3,2,0,0,2,2,2,4,3,4,3,3,3,2,2,2,4,1,2,5,1,4,1,3,2,1,1,1,4,1,5,1, ,1,0,0,1,0,1,0,0,5,4,4,3,4,4,6,1, ,10,1,2, ,1, , , , ,0, ,1, , 
260,1, ,1,1,1,1, , , , , , , , ,3, , , , , , , ,2,2,2,1,0,0,0,0,0, , , , , , , , , , , , , , , , , , , , , , , , , , , , , , , , , , , , , , , , , , , , , , , , , , , , , , , , , , , , , , , , , , , , , , , ,999,999,999,999,999,999,999,999, , , , , , , ,2, ,9,6,1,sld,1, , , ,1,0, , , , 
261,1,4,1,1,1, , ,1, , , , , , ,4,5,5,5,5,1,2,2,3,3,3,0,0,0,0,0,1,11,4,3,3,4,1,4,3,3,1,1,1, ,1,1, , , ,1, ,1, , ,1,1,1,1,1,1,1, , ,1,4,1, ,1,0,0,1,0,1,0,0,0,3,2,3,2,2,2,1,1,1,4,4,4,1,1,4,4,1,4,1,1,4,2,4,1,1, ,0,1,0,0,0,0,0,0,5,5,1,3,3,4,2,2, ,8,1,2, ,1,1, , , ,0, , , , 
263,1,4,4,1, , ,1, , , ,1,1, , ,2,4,2,3,4,4,4,3,2,2,2,0,0,0,0,1,0,10,2,1,1,1,1,1,4,4, , , , , , , ,1, ,8, , ,1, , , , , , , , , , ,1,1,2,0,1,1,1,3,1,2,2,1,2,4,4,4,3,3,3,2,3,3,4,2,2,2,2,4,2,2,2,2,2,2,3,2,4,1, ,1,0,0,1,0,0,0,0,4,4,2,3,4,4,2,2, ,9,1,2, ,2, ,1, , ,0, , , , 
264,1,1,1,1,1, , ,1, , , , , , ,4,3,3,3,5,3,3,2, , ,3,0,0,0,0,0,1,12,4,1,2,5,3,4,4,4, , , , , , , ,1, ,8, , ,1, ,1, , , ,1, , , , ,1,1,1,3,3,3,3,0,3,3,2,3,3,4,3,4,4,4,4,2,3,3,3,2,4,4,1,4,3,3,3,3,2,2,5,3,5,2, ,0,1,0,0,0,0,0,0,5,5,3,5,5,5,2,2, ,10,1,2, ,2,1, , , ,0, , , , 
265,1,3,1,1,1, , ,1, , , , , , ,4,4,3,3,4,2,1,1,2,1,2,0,0,0,0,1,0,10,4,1,2,5,2,4,5,1, , ,1, , , ,1, ,i use it anyway tho :),8, ,1, ,1, ,1, ,1, , , , , ,1,1, ,1,3,1,0,2,1,0,0,0,1,3,3,3,4,4,2,1,2,2,4,1,3,4,1,3,3,2,2,3, ,3,4,2,5,1, ,0,1,0,0,0,0,0,0,3,2,3,4,2,4,5,2, ,8,4,2, ,1, , , ,1,0, , , , 
267,1,4,6,1,1, , ,1, , , , , , ,5,4,4,3,5,1,3,1,3,3,3,0,0,0,0,0,1,12,4,5,3,4,1,4,1,1,1, ,1, , ,1, , , ,3, ,1, , ,1,1, , ,1,1, , , ,3,3,1,0,1,0,1,1,1,0,0,0,2,2,3,4,3,2,1,1,1,1,4,2,4,5,5,4,1,1,3,5,4,3,2,4,4,1, ,0,1,0,0,0,0,0,0,5,4,1,4,2,4,1,2, ,8,1,2, ,1,1, , , ,0, , , , 
271,1,3,3,1, , , , , , , , , , ,2,2,1,1,5,1,1,2,1,2,2,0,1,0,0,0,1,10,1,1,4,4,1,1,5,3, , ,1, , , , ,1, ,8, , , , ,1, , , , , , , , , , , ,2,3,1,2,2,0,2,2,2,2,3, , , , , , , , , , , , , , , , , , , , , , , ,5, ,1,0,0,0,0,0,0,0,4,4,5,4,1,5,6,1, ,9,6,1,Schools hard,1, , , , ,1,1, , , 
275,1,3,1,1, ,1, , , , , , ,1, ,5,4,3,3,5,3,3,1,2,3,3,0,0,0,0,1,0,8,5,1,3,5,1,1,3,3, , , , , ,1,1, , ,8, ,1,1,1,1,1,1,1,1,1,1, , , , , ,0,0,0,1,0,1,2,0,0,0,2,2,1,2,2,2,1,1,1,2,5,4,4,1,4,5,2,4,1,1,4,5,4,2,1, ,0,1,0,0,1,0,0,0,5,2,4,4,1,4,4,2, ,9,2,2, ,1, ,1, , ,0, , ,1, 
280,1,3,3,1,1, , ,1, , , , , , ,1,4,4,4,5,1,2,1,3,3,2,0,0,0,0,0,1,12,4,1,1,4,2,4,5,1,1, ,1, , ,1, , , ,3, , ,1, ,1, , , , , ,1, , ,3,3,1,0,0,0,0,0,0,1,0,0,0,2,2,1,1,3,1,1,1,1,3,3,4,5,1,3,3,2,4,3,4,4,4,4,2,1, ,1,0,0,0,0,0,0,0,5,1,1,1,1,3,6,2, ,8,3,2, ,1, , , , ,0,1, , , 
281,1,3,1,1, ,1, , , , , , ,1,Mom's boyfirend,4,3,4,3,5,1,3,4,3,3,3,0,0,0,0,0,1,12,4,1,1,3,1,2,3,3, , , , , , , ,1, ,8, , , , ,1, , , , , , , , ,2,1,1,1,0,0,1,3,1,0,3,1,0,1,1,1,1,2,1,2,3,3,3,2,3,4,2,3,4,2,3,2,1,3,4,2,3,4, ,0,1,0,0,0,0,0,0,4,3,3,3,3,3,5,2, ,8,2,1,Reading comprehension,1, , , ,1,0, , , , 
283,1,3,1,1, , , , , , , , , , ,1,4,2,3,5,4,2,2,2,2,2,0,0,0,0,0,1,11,3,1,2,4,1,1,4,1, , , , , ,1, , , ,8,1, , , , , , , , , , , , , , , , , , , , , , , , , , , , , , , , , , , , , , , , , , , , , , , , , , , ,1,0,0,0,0,0,0,0,4,3,2,2,3,4,5,1, ,9,4,1, ,2, ,1, , ,1, , , , 
286,1,3,1,1,1, , ,1, , , , , , ,5,5,5,5,5,2,2,1,3,3,3,0,0,0,0,0,1,11,4,1,2,4,3,5,4,2,1, , , , , , , , ,8, ,1,1, ,1, , , , , , , , ,2,2,1,0,0,0,0,0,0,0,0,0,0,3,1,1,1,3,1,1,1,1,3,3,3,3,2,3,3,3,3,2,3,4,4,5,2,1, ,1,1,0,0,0,0,0,0,5,2,1,4,1,4,1,1, ,10,1,2, ,2, , , ,1,0, , , , 
287,1,4,1,1, , , ,1, , , , , , ,4,4,4,2,5,1,1,1,2,3,3,0,0,0,0,0,1,12,3,1,2,4,1,3,5,5,1,1,1, ,1,1, , , ,8,1, , , , , , , , , , , , ,2,2,2,0,0,0,3,0,0,0,0, ,0,1,1,1,1,1,1,1,1,1,3,4,3,5,1,2,4,4,4,1,1,5,1,1,1,1, ,0,0,0,0,0,0,0,1,5,2,4,4,1,4,5,1, ,8,3,2, ,2, , , ,1,0, , , , 
288,1,3,1,1,1,1, , , , , , , , ,4,4,4,5,5,3,2,1,3,3,3,0,0,0,0,0,1,12,4,2,3,5,1,2,3,2, , ,1, ,1,1, , , ,3, ,1,1, , ,1, , ,1,1, , , ,1,4,1,1,1,1,3,0,0,0,1,1,0,3,2,2,1,1,1,1,1,1,2,4,4,4,1,4,4,4,4,1,1,4,2,4,3,1, ,0,1,0,0,0,0,0,0,3,2,3,2,2,4,3,1, ,10,2,2, ,2, , , ,1,0, , , , 
290,1,3,1,1,1,1,1, , , , , , , ,3,5,3,2,4,2,2,2,2,2,1,0,0,0,0,0,1,12,4,1,3,2,1,1,2,2, , , , , , , ,1, ,8,1, , , , , , , , , , , , ,1,2,3,2,2,1,0,2,0,2,2,1,0,3,2,2,2,2,2,2,2,2,2,3,4,5,1,2,4,3,3,2,3,4,2,4,2,1, ,1,0,0,1,0,0,0,0,3,2,2,3,1,3,6,1, ,9,1,2, ,1, , , ,1,0, , , , 
292,1,2,1,1,1, , , ,1, , , , , ,4,3,4,3,4,1,3,3,3,3,3,0,0,0,0,0,1,11,4,1,3,3,1,2,1,3,1, , , , ,1, , , ,3, ,1, , , ,1, , , , , , , , , , , , , , , , , , , , , , , , , , , , , , , , , , , , , , , , , , , , ,1, ,0,1,0,0,0,0,0,0, , , , , , , ,1, ,8,1,2, ,1, , , ,1,0, , , , 
293,1,3,1,1,1, , , , ,1, , , , ,4,5,5,4,5,2,2,2,3,2,2,0,1,1,0,0,0,10,5,3,3,5,2,4,3,2,1, ,1, , ,1, , , ,5, , ,1,1,1, , , , ,1, , , ,3,2,2,1,3,0,2,2,2,2,1,0,0,4,2,3,3,3,3,2,2,2,1,4,4,3,1,4,4,3,4,1,2,4,2,4,3,1, ,1,1,0,0,1,0,0,0,4,3,3,3,4,5,2,1, ,8,4,2, ,2, , , ,1,0, , , , 
294,1,2,6,1, , , , ,1, , , , , ,6,4,5,3,2,2,2,3,3,2,2,0,0,1,0,0,0,13,3,1,3,2,3,1,3,2,1, , , , ,1, , , ,7,1, , , , , , , , , , , , ,1,3,2,0,1,0,1,2,0,2,1,0,0,3,3,3,2,2,1,1,1,2,1,3,3,3,1,4,2,4,4,1,1,5,1,1,1,1, ,1,0,0,0,0,1,0,0,3,3,4,3,1,3,5,1, ,8,2,1,"Language wise and academic wise (Academic Support, Literacy, etc)",2,1, , , ,0, , , , 
295,1,3,1,1,1,1,1, , , , , , , ,4,5,4,3,5,4,3,2,2,2,2,0,1,0,0,0,0,13,3,2,2,4,3,4,2,1, , , , , , , ,1, ,8, ,1,1, , ,1,1, , , , , , ,1,3,1,0,1,0,0,2,0,0,0,0,0,3,3,3,2,3,2,1,2,1,1,3,3,4,1,3,4,2,3,1,2,4,1,3,2,1, ,0,0,0,0,0,0,0,1,4,2,4,4,1,4,5,1, ,10,1,2, ,2, , , ,1,0, , , , 
296,1,2,1,1,1,1,1, , , , , , , ,4,4,4,4,5,2,2,1,2,3,3,0,0,0,0,0,1,11,3,1,3,3,1,1,5,3, , , , , , , ,1, ,8, , , , , ,1,1, ,1, , , , ,1,1,3,0,3,1,1,1,0,0,1,2,1,1,4,2,1,1,1,3,1,1,3,2,4,4,1,4,5,5,4,1,4,3,2,3,2,1, ,0,1,0,1,0,0,0,0,4,2,2,3,4,4,3,1, ,10,1,2, ,2, , , ,1,0, , , , 
297,1,4,1,1,1,1,1, , , , , , , ,5,4,3,3,5,2,2,1,2,2,2,1,0,0,0,0,0,9,3,3,2,5,2,2,3,2,1, , , , , , , , ,8, ,1,1,1, , , , , , , , , , , , , , , , , , , , , , , , , , , , , , , , , , , , , , , , , , , , , , , , ,999,999,999,999,999,999,999,999, , , , , , , ,1, ,8,3,1, ,2, , , ,1,0, , , , 
304,1,2,1,1,1, ,1, , , , , , , ,5,4,3,4,5,2,2,2,2,2,2,0,0,0,0,0,1,11,4,1,3,4,3,2,2,2, , , , , , , ,1, ,8, , ,1, ,1, , , ,1,1, , , ,1,1,1,0,0,0,0,1,0,0,0,0,0,1,2,1,1,1,1,2,1,1,1,3,4,2,1,4,4,4,2,1,1,3,3,3,2,1, ,0,0,0,0,0,0,0,1,2,2,2,2,2,2,1,1, ,10,2,2, ,2, , , ,1,0, , , , 
306,1,4,1, ,1, , , , , , , , , ,3,5,2,3,5,1,2,3,3,3,2,0,1,1,0,0,0,10,5,1,2,1,1,1,3,3, , ,1, , , , , , ,8,1, , , , , , , , , , , , ,2,4,1,0,0,0,0,3,0,3,1,0,0,3,1,1,3,1,1,1,1,1,1,4,4,1,1,4,4,4,2,4,4,5,1,5,3,1, ,1,0,0,1,0,0,0,0,1,1,1,1,1,3,6,1, ,8,4,2, ,2, ,1, , ,0, , , , 
307,1,3,1,1,1, , ,1, , , , , , ,4,5,4,4,4,3,2,2,2,2,2,0,0,0,0,0,1,12,4,3,2,4,3,3,3,2,1, ,1, , ,1, , , ,6, ,1, ,1, ,1, , , ,1, , , ,1,2,1,0,0,0,0,2,0,0,1,0,0,2,2,1,1,1,1,1,1,1,2,3,3,1,1,1,1,2,2,1,1,1,1,1,1,1, ,1,0,0,0,0,0,0,0,4,1,3,1,1,2,6,1, ,8,2,2, ,2, , , ,1,0, , , , 
308,1,5,1,1,1, , , ,1,1, , , , ,5,4,2,1,4,2,3,2,3,3,3,0,0,0,0,0,1,9,3,1,2,4,1,2,5,3, , , , , , , ,1, ,8, , , , , , , , , , , ,1,Common Sense.,1,2,1,0,0,3,0,3,0,0,2,0,0,4,4,2,2,2,2,1,1,1,4,2,3,4,1,4,1,4,1,1,1,4,2,4,4,1, ,1,0,0,0,0,0,0,0,3,2,2,1,1,1,6,1, ,8,6,2, ,2, , , ,1,0, , , , 
309,1,3,1,1,1, ,1, , , , , , , ,4,5,5,4,5,3,3,1,3,3,2,0,0,0,0,0,1,11,5,3, ,4,4,4,2,3, , ,1, , ,1, , , ,8, ,1,1, ,1, , , , , , , , ,1,1,2,0,1,0,0,2,1,0,1,0,0,3,3,3,3,3,3,1,1,1,2,3,3,3,1,3,3,4,4,1,1,3,1,2,4,1, ,1,1,0,1,0,1,0,0,4,3,4,3,2,3,2,1, ,8,1,2, ,1, , , ,1,0, , , , 
316,1,3,1,1, , , , , , , , ,1,Twin Sister,3,4,5,4,4,3,2,2,3,2,2,0,0,0,0,0,1,12,4,1,3,2,1,4,3,2, , , , , , , ,1, ,8, , ,1, ,1, , , ,1, , , , ,3,2,2,0,1,1,0,2,0,0,1,0,0,2,2,3,2,3,2,1,1,1,4,1,2,2,3,2,2,4,3,2,2,3,3,2,4,1, ,1,0,0,0,0,0,0,0,3,2,1,2,2,1,2,1, ,8,2,1,"Well, not really but I have to be in one class once a week that takes 55 mins.",2, , , ,1,0, , , , 
317,1,4,1,1,1, ,1, , , , , , , ,5,5,5,5,5,1,1,1,3,3,3,0,0,0,0,0,1,12,4,3,2,4,3,4,2,1,1, , , , ,1, , , ,3, ,1, , , ,1, , ,1,1, , , ,3,2,1,0,1,0,0,1,0,0,0,0,0,2,1,1,1,1,1,1,1,1,3,3,3,5,1,4,4,3,3,2,3,4,1,4,1,1, ,1,1,0,0,0,0,0,0,4,2,2,3,2,2,3,1, ,8,1,2, ,2, , , ,1,0, , , , 
319,1,3,1,1,1, , , ,1, , , , , ,4,4,3,5,5,3,3,1,3,3,3,0,0,0,0,0,1,11,4,1,1,1,1,1,5,3, , , , , , , ,1, ,8, ,1, , , , , , , , , , , ,2,3,2,3,3,2,1,2,0,2,1,2,3,3,3,1,1,1,1,2,3,3,2,4,4,5,1,4,4,4,3,1,1,5,1,5,3,1, ,1,1,0,1,0,0,0,0,3,5,1,3,4,4,6,1, ,9,1,2, ,2,1, , , ,0, , , , 
321,1,2,1, , , , , , , , , , , , ,3,1,4,5,1,1,1,2,2, ,999,999,999,999,999,999,10,5,1,3,4,1,3,4,4, , , , , , , ,1, ,8, , , , , , , , , , , , , , , , , , , , , , , , , , , , , , , , , , , , , ,4, , , , , , , , ,4,2,4,2,1, ,999,999,999,999,999,999,999,999,2,3, , , , , ,2, ,9,5, , , , ,1, , , , , , , 
322,1,1,1,1, , , , , , , , , , ,3,2,2,1,5,1,3,2,2,3,3,0,1,0,1,0,0,13,5,1,3,5,1,3,1,2, , , , ,1,1, , , ,7, ,1, , , ,1, , , , , , , ,3,1,3,3,3,3,1,0,1,2,3,3,3,4,4,4,2,1,1,3,2,2,4,1,4,4,1,3,1,4,3,1,1,2,4,2,5,1, ,1,0,0,1,0,1,0,0,3,1,2,2,5,5,5,2, ,9,3,2, ,1, , , ,1,0, , , , 
324,1,2,1, , , , , , ,1, , , , ,2,3,2,3,4,4,3,1,2,2,1,0,0,0,0,0,1,10,5,1,3,4,1,2,5,2, , , , , , , ,1, ,8,1, , , , , , , , , , , , ,3,2,3,3,3,2,2,0,2,3,2,3,3,2,1,1,2,2,2,2,2,3,1,5,4,4,4,4,1,3,2,1,4,4,3,3,4,2, ,0,1,0,0,0,0,0,0,5,5,5,5,5,5,4,2, ,9,4,2, ,2, , , ,1,0, , , , 
325,1,3,1,1,1, ,1, ,1,1, , , , ,5,4,5,3,4,2,2,1,3,2,2,1,0,0,0,0,0,8,3,1,4,3,3,3,3,3, , , , , , , ,1, ,8, ,1, , , , , , , , , , , ,4,4,2,1,0,0,1,3,1,0,2,1,0,3,3,2,2,2,2,1,1,2,5,5,5,5,5,5,5,5,5,5,5,4,4,4,4,1, ,1,0,0,0,1,0,0,0,3,2,4,3,3,4,6,1, ,8,4,1, ,2, ,1,1, ,1, , , , 
328,1,3,2,1,1, , ,1,1, , , , , ,1,5,5,3,5,1,1,1,3, ,2,0,0,0,0,0,1,12,5,1,1,5,5,5,2,2,1, ,1, , , , , , ,3, ,1,1, , ,1, , , , , , , ,1,3,1,1,1,0,3,3,0,1,1,1,0,3,3,4,4,4,4,2,3,3,4,1,1,1,1,3,3,3,3,1,1,5,1,5,1,4, ,1,0,0,0,0,0,0,1,5,5,5,4,5,5,6,2, ,8,2,2, ,1, , , , ,1,1, , , 
329,1,3,1,1,1, , , ,1, , , , , ,4,4,5,3,5,1,1,1,2,3,3,0,0,0,0,0,1,12,4,1,2,3,1,2,2,2,1, , , , , , , , ,8,1, , , ,1, , , , , , , , ,3,3,3,2,3,1,3,0, ,1,1,2,3,2,4,3,2,2,1, , ,2,4,1,3,5,1,4,4,1,4,2,1,3,3,2,3,1, ,1,0,0,0,0,0,0,0,1,3,4,3,4,5,6,2, ,10,1,2, ,2, , ,1,1,0, , , , 
330,1,4,1,1,1,1,1, ,1, , , , , ,4,4,3,3,5,2,3,3,3,3,3,0,0,0,0,0,1,11,3,1,1,5,2,3,2,2,1, , , , , , , , ,8, ,1, , , ,1, , ,1,1, , , , , , ,0,1,0,1,2,2,0,0,1,1,3,3,3,2,2,2,2,2,2,3,4,4,3,1,3,3,1,3,1,1,3,3,3,3,1, ,0,1,0,0,0,0,0,0,5,5,4,5,5,5,2,2, ,10,1,2, ,2, , , ,1,0, , , , 
332,1,4,1,1, , , , , , , , , , ,3,5,5,5,5,4,4,1,3,2,3,0,0,0,0,0,1,11,4,1,1,5,1,1,3,3, , ,1, , ,1, , , ,4,1, ,1, ,1, , , ,1,1, , , ,1,1,1,0,0,0,1,1,0,0,0,0,0,1,1,1,1,1,1,1,1,1,5,4,4,5,5,3,4,3,3,5,5,5,1,1,1,1, ,1,0,0,0,0,0,0,0,3,3,4,1,1,1,6,1, ,9,2,2, ,2, ,1, , ,0, , , , 
333,1,2,1, , , , , , , ,1,1, , ,5,5,3,2,4,2,2,2,3,3,3,0,0,0,0,0,1,10,3,1,3,2,1,1,3,1,1, ,1, , , , , , ,7, , , , , ,1, , , , , , , ,1,1,2,0,0,0,0,3,0,1,0,0,0,2,2,1,1,1,1,1,1,1,3, ,4,2,1,4,4,4,4,1,1,4,1,4,2,1, ,0,1,0,0,0,0,0,0,4,2,2,3,3,4,5,1, ,9,2,2, ,2, , , ,1,0, , , , 
334,1,2,1,1, , , , , , , , , , ,5,4,2,3,3,1,1,1,2,2,2,0,0,0,0,1,0,12,5,3,3,3,2,2,4,1,1, , , , ,1, , , ,8,1, , , , , , , , , , , , , , , ,1,3,2,2,3,0,2,2,0,3,4,2,3,2,2,2,2,1,2,4,3,3,4, ,4,1, , , , ,3,4,3,5,2, ,0,1,0,0,0,0,0,0,4,5,4,4,5,5,6,2, ,10,4,2, ,1, , , , ,1,1, , , 
336,1,3,1,1,1, , ,1, , , , , , ,6,3,2,3,4,1,1,1,3,2,3,0,0,0,0,0,1,14,1,1,2,1,1,1,5,2, , , , , , , ,1, ,8, , ,1, ,1, , , ,1,1, , , ,2,2,3,2,3,2,2,1,1,1,1,1,0,4,3,3,3,3,2,2,1,2,4,3,4,5,2,4,5,4,3,2,4,4,2,3,2,2, ,1,0,0,1,0,0,1,0,3,5,2,5,3,3,6,2, ,10,2,2, ,2, ,1, , ,0, , , , 
337,1,3,1,1,1, , ,1, ,1, , , , ,4,5,4,3,5,2,3,4,2,3,2,0,0,0,0,0,1,10,4,1,2,5,4,5,3,1,1, , , , , , , , ,8, ,1, , ,1,1, , , , , , , ,1,2,1,1,3,2,3,0,3,0,1,2,1,4,3,4,4,4,4,2,3,3,3,4,4,4,2,3,4,1,4,3,4,2,4,2,5,4, ,1,1,0,0,0,0,0,0,5,5,2,3,4,4,3,2, ,9,1,2, ,1, , , ,1,0, ,1, , 
339,1,3,3,1, , , ,1, , , , , , ,6,5,4,2,4,3,3,1, ,2,2,1,0,0,0,0,1,8,3,1,3,1,1,1,5,2, , , , , , , ,1, ,8, , ,1, ,1, , , , , , , , ,1,2,2,1,0,1,2,0,2,1,3,1,2,3,4,3,2,1,2,2,3,2,2,3,4,5,4,3,2,1,2,3,4,1,2,3,4,1, ,0,1,0,0,0,0,0,0,2,3,4,5,4,3,1,3,transgender,8,6,2, ,1, , , , ,0,1, , , 
340,1,3,2,1, , , ,1, , ,1,1, , ,1,3,2,2,5,1,1,1,2,2,2,0,1,0,0,0,0,10,4,1,2,3,1,1,5,5,1,1, ,1,1, , , , ,4, , , , , , , , , , , ,1,?, , , , , , , , , , , , , , , , , , , , , , , , , , , , , , , , , , , , , , , ,999,999,999,999,999,999,999,999, , , , , , , ,1, ,8,5,2, ,2, , , , ,1, , ,1,?
341,1,3,1,1,1, ,1,1, , , , , , ,3,4,4,2,4,3,3,2,3,2,2,0,0,0,0,0,1,11,3,2,3,2,1,2,4,3, , , , ,1, , , , ,8, ,1,1,1, ,1, , , ,1, , , , , , ,0,1,0,1,3,0,0,0,0,1,2,2,2,1,1,1,1,1,1,1,3,4,1,1,1,1,4,1,1,1, , , , , , ,0,1,0,0,0,0,0,0,2,1,2,2,1,1,6,1, ,10,2,2, ,1, , , , ,1,1, , , 
342,1,1,1,1,1,1, , , , , , , , ,4,2,5,1,4,3,2,1,2,2,2,0,0,0,0,0,1,11,2,1,4,1,1,1,5,2,1, ,1, , , , , , ,8,1, , , , , , , , , , , , ,1,1,1,0,0,0,0,3,0,0,3,0,0,3,1,1,1,1,1,1,3,3,3,1,4,4,1,1, ,1,4,1,1,5,1,3,1,2, ,1,0,1,1,0,0,0,0,1,1,1,1,3,1,6,1, ,8,2,2, ,2, , , ,1,0, , , , 
346,1,5,1,1, , ,1, , , , , , , ,6,5,4,4,5,2,2,2,3,3,3,0,0,0,0,0,1,10,5,2,2,5,1,1,1,3, , ,1, , ,1, , , ,8, ,1, , , , , , , , , , , ,1,1,1,0,0,0,3,0,0,0,0,0,0,4,4,4,4,4,4,3,3,3,5,4,5,5,5,4,5,5,5,5,5,5,1,5,1,6, ,0,1,0,0,0,0,0,0,5,5,5,5,1,1,1,1, ,8,2,2, ,2, ,1, , ,1, , , , 
348,1,3,3,1,1, , , ,1, , , , , ,2,5,5,2,5,1,1,2,2,2,3,1,0,0,0,0,0,10,5,1,2,4,1,4,3,3,1, , , , ,1, , , ,4,1, , , , , ,1, , , , , , ,1, , ,0,0,0,1,3,0,1,2,0,0,2,1,1,1,1,1,1,1,1,3,3,3,1,1,3,3,5,2,2,1, , , , ,1, ,999,999,999,999,999,999,999,999,3,1,1,1,3,1,5,1, ,9,3,2, ,2, , , , ,0,1, , , 
349,1,3,1,1, ,1, , , , , , , , ,6,5,5,4,5,1,1,1,2,2,2,0,0,1,0,0,0,8,4,1,2,4,1,2,5,2,1, , , , ,1, , , ,8, , , , , , , , , , , ,1,idk i just did,2,2,2,0,0,0,0, ,0,1,0,1,1,1,1,1,1,1,1,1,1,1, , , , , , , , , , , ,3,2,2,3,1, ,1,0,0,0,0,0,0,0,3,2,3,2,3,4,1,1, ,8,2,2, ,2, , , ,1,0, , , , 
354,1,3,1,1,1, , , ,1, , , , , ,4,5,4,3,5,4,2,1,2,3,2,1,0,0,0,1,0,11,3,2,1,4,2,3,3,1, ,1,1, ,1, , , , ,6, , ,1, ,1,1, , ,1, , , , , , , ,3,1,3,1,2,1,2,2,1,3,4,4,4,1,1,1,2,2,3,3,3,2,2,1,3,1,1,2,1,1,3,1,3,1,4, ,1,0,0,0,0,0,0,0,3,4,3,3,3,1,5,2, ,8,2,2, ,2, ,1, ,1,0, , , , 
355,1,2,6,1, , , , , , ,1, , , ,4,5,4,3,4,1,2,1,3,2,2,999,999,999,999,999,999,13,4,1,3,5,5,5,3,4,1, ,1, ,1,1, , , ,8, ,1, ,1,1, , , , , , , , , , , , , , , , , , , , , , , , , , , , , , , , , , , , , , , , , , , , , , , ,0,1,0,0,0,0,0,0, , , , , , , ,1, ,10,2, , ,2, , , , ,1, , ,1,dominican
357,1,3,1,1,1, ,1, , , , , ,1,Brother-in-Law,4,4,4,3,5,2,2,2,3,3,3,0,0,0,0,0,1,12,5,1,2,4,1,3,3,3,1,1,1,1,1,1, ,1, ,8, , , , , , , , , , , ,1,Just gathered information through experience and hearing things,2,2,2,1,3,0,0,0,3,0,0,3,1,4,4,4,2,2,3,1,2,2,4,3,4,1,1,4,2,3,3,4,4,4,2,4,3,1, ,1,1,0,1,0,0,0,0,3,2,4,4,3,4,1,1, ,9,1,2, ,2, , , ,1,0, , , , 
358,1,3,7,1,1,1, , , , , , , , ,6,5,5,3,3,2,2,1,3,3,3,0,0,0,0,0,1,9,5,4,3,2,1,3,2,3,1, ,1, , ,1, , , ,8,1, , , , , , , , , , , , ,3,4,1,0,0,0,3,0,0,0,0,1,0,2,3,2,1,1,1,1,1,1,2,3,4,1,1,1,5,3,2,1,3,4,1,3,3,1, ,1,0,0,0,0,1,0,0,3,3,3,3,3,3,6,1, ,8,1,2, ,1, , , ,1,0, ,1, , 
359,1,2,1,1, ,1, , , , , , , , ,2,4,3,4,4,2,4,3,3,2,1,0,1,0,0,0,0,11,4,1,2,3,1,2,5,3, , ,1, , , , , , ,8, , ,1, ,1, , , , , , , , , , , , , , , , , , , , , , , , , , , , , , , , , , , , , , , , , , , , , , , ,999,999,999,999,999,999,999,999, , , , , , , ,1, ,8,2,2, ,2, , , ,1,0, , , , 
360,1,3,1,1,1, , , , , , , , , ,2,4,4,4,4,2,3,2,3,3,3,0,0,0,0,0,1,11,3,1,2,2,2,2,4,2, , , , , , , ,1, ,8, ,1, , ,1,1, , , , , , , ,3,4,2,2,1,0,3,1,2,1,0,0,1,2,2,2,2,2,2,2,2,1,2,4,4,1,1,2,4,4,4,2,1,4,2,3,2,1, ,0,1,0,0,1,0,0,0,4,4,4,4,3,4,3,1, ,9,2,2, ,1, , , ,1,0, , , , 
361,1,3,1,1,1,1, , , , , , , , ,6,4,5,4,5,2,2,1,2,2,2,0,0,0,0,1,0,11,4,1,3,4,1,4,4,2,1, ,1, , ,1, , , ,5, , , , ,1, , , , , , , , ,3,3,2,0,0,0,0,1,0,0,0,0,1,4,3,3,1,1,1,1,1,1,3,3,3,2,1,1,1,3,2,1,1,5,1,5,1,1, ,1,1,0,0,0,0,0,0,1,1,1,2,1,1,2,1, ,8,2,2, ,2, , ,1, ,0, , , , 
362,1,3,1,1, , , , ,1, , , ,1,My grandma works at my house,6,4,4,3,5,3,2,1,3,2,2,0,1,0,0,1,0,10,2,1,2,4,2,3,3,3, , , , , , , ,1, ,8, ,1, , , ,1, , , , , , , ,1,3,2,0,1,1,1,3, ,2,2,1,2,3,2,2,1,1,1,2,2,2,3,3,4,3,1,4,4,4,2,3,2,3,2,4,3,1, ,1,1,0,1,1,1,0,0,2,4,4,3,3,4,2,1, ,9,4,2, ,1, , , ,1,0, , , , 
363,1,3,2,1,1, , , ,1, , , , , ,6,5,3,4,5,3,3,2,3,2,2,0,0,0,0,0,1,9,5,1,2,3,4,3,4,4, , , , , , , ,1, ,8, , , , ,1, , , , , , , , , , , , , , , , , , , , , , , , , , , , , , , , , , , , , , , , , , , , , , , ,999,999,999,999,999,999,999,999, , , , , , , ,2, ,10,2,2, ,1, , , , ,1,1, , , 
364,1,3,1, ,1, , ,1, , , , , , ,3,4,5,4,5,2,2,1,3,2,2,0,0,0,0,0,1,10,4,1,2,5,2,4,4,4, , , , , , , ,1, ,8, ,1, , , ,1, , , , , , , ,2,3,2,2,2,3,3,1,3,3,2,3,2,3,2,3,4,4,4,3,2,2,2,3,4,3,3,3,3,3,3,3,3,1,5,1,5,1, ,0,1,0,0,0,0,0,0,5,3,4,3,5,5,3,2, ,9,1,2, ,1, , , ,1,0,1, , , 
365,1,3,1,1,1, ,1, ,1, , , , , ,4,5,4,5,5,1,1,1,3,3,3,0,0,0,0,0,1,11,4,2,2,5,3,3,1,2,1, , , ,1,1, , , ,4, ,1,1, ,1, , , ,1, , , , ,3,4,1,0,0,0,0,1,0,0,0,0,0,3,3,3,2,1,1,2,1,1,1,4,3,5,1,3,2,3,4,1,3,4,2,3,2,5,I haven't felt attracted to anyone yet.,1,1,0,0,0,0,0,0,3,3,2,1,1,1,3,2, ,8,1,2, ,1, , , ,1,0, , , , 
366,1,3,3,1,1,1,1, , , , , , , ,5,4,5,3,5,1,1,2,3,2,2,1,1,0,0,0,0,12,4,1,1,4,3,3,3,1,1, ,1, , ,1, , , ,5, ,1, , , ,1,1, , , , , , ,2,2,1,0,1,0,1,3,0,0,2,1,1,2,1,2,1,1,1,2,2,1,3,3,2,2,1,4,3,1,3,1,1,3,4,3,3,1, ,0,1,0,1,0,0,0,0,4,2,4,1,1,2,5,2, ,8,1,2, ,1, , , ,1,0, , , , 
367,1,4,1,1,1, ,1, , , , , , , ,6,4,4,4,5,2,2,1,3,2,3,0,0,0,0,0,1,11,5,3,3,5,2,4,3,4,1, ,1, , ,1, , , ,8, ,1,1,1, , , , , , , , , ,2,4,1,0,1,1,2,0,0,1,1,1,0,3,3,3,2,2,2,2,2,1,3,2,3,3,1,3,3,2,3,3,3,2,3,3,3,1, ,0,1,0,0,0,0,0,0,5,5,3,4,4,4,3,2, ,9,2,2, ,1, , , ,1,0, , , , 
368,1,2,1,1,1, ,1,1, , , , , , ,5,5,3,3,5,1,1,1,2,3,2,0,0,0,0,0,1,12,3,1,1,3,1,3,5,2, , , , , , , ,1, ,8, ,1,1, , ,1, , , , ,1, , ,2,2,2,0,1,1,0,3,0,0,1,0,0,3,2,4,1,1,1,1,2,1,4,3,4,3,1,3,1,4,2,1,4,3,2,4,5,4, ,0,1,0,0,0,0,0,0,4,5,5,5,5,5,6,2, ,9,5,2, ,2, , , ,1,0, , , , 
369,1,4,3,1,1, , , ,1, , , , , ,4,4,3,1,5,2,3,1,3,3,3,0,0,1,0,0,0,8,5,1,4,2,5,3,3,2,1, ,1, , ,1, , , ,7, ,1, , ,1,1, , ,1, , , , ,1,1,1,2,0,0,2,2,1,1,1,2,1,4,4,4,2,2,1,2,1,1,4,1,1,1,1,4,1,1,1,1,1,5,3,1,3,1, ,1,0,0,0,0,0,0,0,2,2,2,4,3,3,6,2, ,8,1,2, ,1, , , ,1,0,1, , , 
371,1,5,3,1,1, , , ,1, , , , , ,6,5,5,5,5,1,1,1,2,3,1,0,0,0,0,0,1,12,4,5,1,5,5,5,3,1,1, ,1, , ,1, , , ,5, , , , ,1, , , , , , , , ,5,1,1,1,1,0,1,2,1,1,1,1,0,3,3,3,2,3,2,1,2,2,4,3,3,5,1,4,2,4,4,4,4,2,3,2,4,1, ,0,0,0,0,0,0,0,1,1,1,1,1,1,1,1,2, ,8,1,2, ,2, , , , ,1, , ,1,brazilian
372,1,2,6,1,1, , , , , , , , , ,6,4,5,2,5,1,1,1,2,2,2,0,0,0,0,0,1,12,4,1,2,1,1,5,4,2,1, ,1, ,1,1, , , ,6, , , , , ,1, , , , , , , ,1,1,1,1,2,2,1,2,0,0,2,3,2,4,3,4,1,1,1,2,2,2,3,3,4,5,1,4,3,4,4,1,4,4,1,3,3,1, ,1,0,0,0,0,0,0,0,4,3,3,4,5,5,6,1, ,8,2,2, ,1,1, , , ,0, , , , 
376,1,3,1,1, , , , , , , , , , ,2,4,2,3,5,1,2,2,2,1,1,0,0,0,0,0,1,11,4,1,2,4,1,4,4,2,1, , , , , , , , ,8, ,1,1, ,1, ,1, , , , , , ,1,1,2,3,3,2,3,3,3,2,3,3,3,4,4,4,4,4,4,3,3,3,4,1,1,4,1,4,1,1,1,1,1,2,5,3,5,2, ,1,0,0,0,0,0,0,0,4,3,4,5,4,4,5,2, ,8,2,2, ,1, , , ,1,0, , , , 
377,1,2,1,1,1,1,1,1,1, , , , , ,4,4,5,4,5,1,1,2,3,3,3,0,0,0,0,0,1,11,4,2,3,4,2,4,1,1,1, , , ,1, , , , ,8, , ,1, ,1, , , ,1, , , , , , , ,0,1,1,0,1,2,0,1,1,1,3,4,3,2,2,2,2,2,2,4,4,4,4,1,4,4,2,4,1,1,3,2,4,3,1, ,1,1,0,1,0,1,0,0,3,3,4,3,2,4,1,2, ,8,2,2, ,1, , , ,1,0, , , , 
380,1,4,1,1, ,1, , , , , , , , ,2,4,5,4,5,1,1,2,3,2,2,0,0,0,0,0,1,11,5,1,2,4,1,2,3,4,1, , , , ,1, , , ,8, ,1, , , ,1,1, , ,1, , , ,1,1,1,0,0,0,0,0,0,0,0,0,0,1,1,2,2,2,1,1,1,1,3,4,4,4,1,4,3,1,3,2,1,4,2,4,2,1, ,1,1,0,0,0,0,0,0,4,2,3,4,1,3,1,2, ,10,4,2, ,2, , , ,1,0, , , , 
381,1,1,1,1,1, , , ,1, , , , , ,5,2,2,1,3,5,4,4,1,1,1,0,0,0,0,0,1,11,4,1,2,2,1,1,5,5, , , , , , , ,1, ,8, , , , ,1, , , , , , , , ,1,1,4,3,3,3,3,2,1,3,2,3,3,2,2,3,3,3,3,1,1,2,4,1,3,5,5,4,2,3,3,2,1,2,5,3,5,2, ,1,1,0,0,0,0,0,0,5,4,5,5,5,5,6,2, ,10,3,2, ,1, , , ,1,0, , , , 
382,1,4,1,1,1, , , ,1, , , , , ,5,4,3,4,5,2,2,2,3,3,2,0,1,0,0,0,0,11,4,1,3,5,4,5,2,1,1, ,1, , , , , , ,7, ,1,1,1,1,1,1,1, , , , , ,1,1,1,2,1,0,3,0,0,2,1,0,1,4,3,4,4,4,3,1,2,1,4,2,4,1,2,4,4,1,2,3,4,2,5,3,5,1, ,1,1,0,1,0,0,0,0,4,1,2,4,4,4,2,2, ,9,1,2, ,1, , , ,1,0, , , , 
384,1,4,7,1,1, , ,1, , , , , , ,6,5,4,4,4,2,2,2,2,1,2,0,0,0,0,0,1,11,4,3,2,3,3,3,3,4,1, , , , ,1, , , ,6, ,1, , ,1, , , , , , , , ,2,3,2,1,1,0,1,1,0,0,0,0,0,2,2,2,1,1,1,1,1,1,2,3,4,4,1,4,3,4,3,2,3,4,2,4,2,1, ,1,0,0,0,0,0,0,0,4,3,3,3,2,3,3,1, ,8,4,1,because i have adhd,2, , , ,1,0, ,1, , 
385,1,3,1,1,1,1, , , , , , , , ,6,4,1,1,3,4,4,3,3,2,3,0,0,0,0,0,1,10,3,1,1,3,1,1,4,2, , , , , , , ,1, ,8, , ,1, , , , , , , , , , ,1,1,3,1,3,2,2,3,1,3,2,0,2,3,2,3,4,3,3,1,1,2,4,1,3,5,5,4,3,3,2,3,1,2,4,3,4,1, ,1,1,0,1,0,0,0,0,5,3,3,4,4,4,6,2, ,9,1,2, ,1, , , ,1,0, , , , 
386,1,3,1,1, , ,1, , , , , , , ,4,5,3,2,4,2,3,2,3,3,3,0,0,0,0,0,1,11,3,1, ,3,1,3,3,3,1, , , , , , ,1, ,8, ,1,1, ,1, , , , , , , , ,1,3,2,1,1,0,0,3,2,1,1,0,0,4,4,4,4,4,4,2,2,1,3,3,3,4,1,3,1,2,2,4,1,3,4,3,4,1, ,0,0,0,0,0,0,0,1,4,4,1,2,3,3,6,2, ,8,2,2, ,2, , , ,1,0, , , , 
387,1,3,1,1,1,1, ,1, , , , , , ,4,5,4,4,5,2,2,2,3,3,3,0,0,0,0,0,1,10,5,2,3,4,3,3,1,1,1, ,1, , , , , , ,8, ,1,1, ,1, , , , , , , , ,2,4,1,0,1,0,2,0,0,1,0,0,0,3,3,2,1,1,1,1,1,1,1,4,4,5,2,3,3,2,2,5,3,4,2,3,2,1, ,0,1,0,0,0,0,0,0,5,4,3,5,2,3,1,2, ,9,1,2, ,1, , , ,1,0, , , , 
388,1,2,1,1,1, ,1,1, , , , , , ,5,4,5,3,5,1,1,1,2,2,3,0,0,0,0,0,1,11,5,4,5,5,5,5,5,3,1, , , , , , , , ,8, , ,1, ,1, , , , , , , , , , , ,1,3,3,3,0,3,3,2,3,3,2,2,2,2,2,2,2,2,2,4,4,4,4,4,4,4,4,4,4,4,1,1,1,1,1, ,1,0,0,0,1,1,0,0,4,4,4,4,4,4,5,2, ,8,2,1, ,2, , , ,1,1, , , , 
389,1,4,1,1,1, , , ,1,1, , , , ,4,5,5,5,5,2,2,1,3,3,3,0,0,0,0,0,1,12,4,1,2,5,4,5,2,2, , , , ,1,1, , , ,6, ,1, , ,1,1,1,1, , , , , ,4,4,1,0,0,0,0,0,0,1,0,0,1,3,2,4,3,2,1,1,1,1,3,4,4,3,1,4,4,3,4,1,1,3,3,3,4,1, ,1,1,0,0,0,0,0,0,5,5,4,4,2,4,2,2, ,10,1,2, ,1, , , ,1,0, , , , 
393,1,5,8, ,1,1,1,1, ,1,1,1, , ,5,5,3,1,1,1,1,1,2,1,1,0,1,0,0,0,0,0,4,3,2,3,4,1,4,5, , , , , ,1, , , ,8,1,1, ,1,1,1, ,1,1,1, ,1, ,5,5,4,2,2,1,1,1,1,3,1,1,1,1,3,2,3,4,4,3,2,1,1,2,3,4,5,4,3,2,1,2,3,1,2,3,4,4, ,0,0,0,1,0,0,1,0,2,4,3,3,4,5,5,1, ,8,2,1, ,2,1, , ,1,1, , , , 
394,1,3,1,1, , , , , , , , , , ,2,5,4,4,5,3,2,1,3,2,3,1,0,0,0,0,0,8,1,1,2,2,1,1,1,3, , ,1, ,1, , , , ,1, , , , , , , , , , , ,1,myself,1,3,2,0,1,0,0,3,0,0,0,0,0,2,1,1,1,1,1,1,1,1,1,2,2,1,1,2,5,5,4,1,1,5,1,5,1,1, ,0,1,0,0,0,0,0,0,4,3,2,2,1,1,6,1, ,8,4,2, ,2, ,1, , ,0, , , , 
396,1,3,1,1,1, ,1, ,1, , , , , ,4,5,5,3,4,2,2,1,3,3,3,0,0,0,0,0,1,12,4,1,3,1,1,1,5,4,1, , , , ,1, , , ,8, , , , ,1, , , ,1, , , , ,1,1,2,0,0,0,0,1,0,1,1,0,0,2,2,2,2,2,2,1,1,1,3,3,3,3,1,3,3,3,3,1,1,5,3,4,2,1, ,1,0,0,0,0,0,0,0,1,1,1,1,1,1,6,3,Horse,10,1,2, ,1, , , ,1,0, , , , 
398,1,5,1,1,1, ,1, , , , , , , ,4,5,3,4,5,3,3,1,2,2,2,0,0,0,0,0,1,9,5,1,1,5,4,3,2,2, , , , , , , ,1, ,8, , ,1, , ,1, , , , , , , ,4,3,1,0,1,0,1,0,3,2,1,1,2,4,4,4,4,4,4,1,2,2,2,4,3,4,1,4,3,1,3,1,3,3,4,3,5,1, ,1,0,0,1,0,1,0,0,5,5,5,5,4,5,5,2, ,10,2,2, ,1, , , ,1,0, , , , 
399,1,3,1,1,1,1, , , , , , , , ,4,5,2,2,3,3,3,3,2,2,2,0,1,0,1,0,0,12,3,3,3,3,1,1,5,1, , , , , , , ,1, ,8, , ,1, ,1, , , , , , , , ,1,1,1,0,0,0,0,3,0,0,3,0,0,2,2,2,2,2,2,1,1,1,1,1,1,1,1,1,1,1,1,1,1,5,1,5,1,1, ,0,1,0,1,0,0,0,0,3,3,3,3,3,3,5,1, ,10,1, , ,1, , , ,1,0, , , , 
400,1,2,2,1,1, ,1, , , , , , , ,1,3,2,4,5,3,1,2,1,2,1,0,1,0,1,0,0,13,5,1,2,5,3,1,5,5, , , , , , , ,1, ,8, , ,1, , , , , , , , , , ,1,4,2,2,3,3,3,3,2,3,3,3,3,4,4,4,4,4,4,2,3,3,3,1,4,1,4,4,5,4,4,4,1,1,5,2,5,2, ,1,0,1,1,0,1,0,0,5,5,5,5,5,5,2,2, ,10,2,2, ,2, , , , ,1, , ,1, 
401,1,3,1,1,1, , ,1,1, , , , , ,4,5,4,4,4,2,2,1,2,2,2,0,0,0,0,0,1,11,4,1,2,1,1,2,2,2,1, , , , , , , , ,8, ,1, ,1, ,1,1,1, , , , , ,4,3,2,0,1,0,0,2,1,2,1,0,1,3,3,3,2,2,2,1,2,1,3,3,3,1,1,2,3,4,1,1,1,4,2,2,3,1, ,1,1,0,1,0,0,0,0,5,4,4,3,1,3,6,1, ,9,2,2, ,1, , , ,1,0, , , , 
403,1,4,1,1,1,1, , , , , , , , ,4,4,5,5,5,3,2,1,3,3,2,0,0,0,0,0,1,11,4,1,2,3,4,5,4,5, , ,1, , , , , , ,5, ,1,1,1, ,1,1,1, ,1, , , , , ,2,0,2,0,0,3,0,3,1,1,0,1,1,3,3,2,3,2,2,2, , , , , , , , , , , , , , , , , ,1,1,1,0,1,1,0,0,4,1,3,3,3,4,1,1, ,9,1,2, ,2,1,1, , ,0, , , , 
404,1,4,1,1,1, , , , ,1,1, ,1,Cat(s),1,4,5,3,5,1,2,1,3,3,3,0,1,0,1,0,0,0,5,1,2,5,1,5,1,4,1, ,1, , ,1, , , ,8, ,1, , , , , , , , , , , ,1,1,4,3,3,3,3,3,3,3,3,3,3,4,4,4,1,1,1,2,2,2,4,4,4,4,1,4,1,3,1,1,1,1,1,1,5,3, ,1,1,0,0,0,1,0,0,1,1,1,1,5,1,6,2, ,9,2,1,"I do have an IEP, I don't usually need any assistance",2, , ,1,1,0, , ,1,"Irish, Italian, Australian"
405,1,2,1,1,1, ,1,1, ,1, , , , ,5,4,3,2,4,1,1,1,3,2,2,0,1,0,0,0,0,11,3,1,2,2,1,1,5,2,1, , , , , , , , ,8, ,1,1, ,1, , , , , , , , ,1,3,1,1,3,1,1,2,0,2,1,2,2,3,1,3,3,3,2,2,1,1,3,2,4,4,3,4,4,3,4,2,1,3,4,3,4,2, ,1,0,0,0,0,0,0,0,4,2,5,1,4,4,4,2, ,8,1,2, ,1, , , ,1,0, , , , 
406,1,5,7,1,1,1, , , , , , , , ,3,4,5,4,5,2,1,2,3,2,3,0,0,0,0,0,1,9,3,1,2,4,3,2,3,4,1, , , , , , , , ,5, , , , ,1, , , ,1,1, , , , , , ,2,0,0,1,1,0,1,1,1,1,2,1,2,3,2,1,2,1,1,2,4,4,5,5,3,3,5,3,5,5,3,2,2,3,1, ,0,1,0,0,0,0,0,0,4,2,3,3,3,3,2,2, ,9,1,2, ,2, , , , ,0, ,1, , 
408,1,5,1,1,1, , ,1,1, , , , , ,6,5,5,5,5,5,5,5,3,3,3,1,0,0,1,0,0,8,5,5,5,5,5,5,5,5, , , , , , , ,1, ,7, , , , , , , , , , , , , , , , , , , , , , , , , , , , , , , , , , , , , , , , , , , , , , , , , , ,1, ,999,999,999,999,999,999,999,999, , , , , , ,1,1, ,8,2, , , , , , ,1,0, , , , 
409,1,3,1,1,1,1, ,1, , , , ,1,my chinchilla,2,3,5,4,3,1,1,1,3,2,3,1,0,0,0,0,0,11,3,4,4,2,1,1,1,1, , , , , , ,1, ,not allowed to talk at a specific time during a school night,7, ,1, , , ,1, , , , , , , ,1,3,1,0,0,0,0,2,0,0,0,0,0,1,1,1,1,1,1,1,1,1,1,3,3,1,1,1, ,1,1,1,1,5,1,5,1,1, ,1,0,0,0,0,0,0,0,1,4,1,3,1,1,6,1, ,8,4,1, ,1, , , , ,0, , ,1,white
410,1,4,1,1,1,1,1, , , , , , , ,3,5,4,4,4,3,2,2,3,3,3,0,0,0,0,0,1,10,2,1,2,5,1,3,5,2, , , , , , , ,1, ,8, ,1,1, , ,1, , , , , , , ,2,3,1,1,2,0,2,3,0,3,1,2,2,3,2,3,3,3,3,2,1,2,1,3,3,3,3,3,3,3,3,3,3,3,3,3,3,1, ,1,0,0,1,0,0,0,0,1,3,4,4,5,5,2,2, ,9,1,2, ,1, , , ,1,0, , , , 
411,1,2,1,1,1,1, , , , , , , , ,4,4,4,3,5,2,1,1,2,2,2,0,1,0,0,0,0,10,3,3,3,4,3,4,2,2, , , , , , , ,1, ,7, ,1,1, ,1, , , ,1, , , , ,1,2,2,1,2,1,2,2,2,1,1,2,1,3,1,3,4,4,3,1,1,1,3,3,4,3,1,3,3,3,2,3,1,2,5,2,5,1, ,0,1,0,1,0,0,0,0,4,4,3,3,3,4,5,2, ,8,4,2, ,1, , , ,1,0, , , , 
412,1,4,1,1,1,1,1, , , , , , , ,4,5,5,5,5,1,1,1,3,3,3,0,0,0,0,0,1,11,3,1,1,5,1,1,3,2,1, , , , , , , , ,5, ,1,1, ,1, , , , , , , , ,1,1,1,1,1,0,1,0,0,0,0,0,0,1,3,2,3,3,3,1,1,1,2,4,4,5,1,4,4,5,3,2,2,3,3,4,4,1, ,1,1,0,1,0,0,0,0,5,4,2,3,2,2,3,2, ,10,1,2, ,1, , , ,1,0, , , , 
413,1,3,1, ,1, , ,1,1, , , , , ,4,2,5,4,5,1,1,1,2,2,3,0,0,0,0,0,1,12,5,5,2,5,5,4,1,1,1, ,1, ,1, , , , ,5, ,1, ,1, ,1, , , , , , , , , , ,0,0,0,0,3,1,0,3,0,0,3,3,3,3,3,3,1,1,1,2,5,5,5,5,5,5,5,5,5,5,1,1,1,1,1, ,1,0,0,0,0,0,1,0,4,4,4,4,3,4,1,2, ,8,3,2, ,2, , , ,1,0, , , , 
414,1,3,1,1,1, , ,1, , , , , , ,2,3,3,2,3,4,3,2,2,2,2,0,0,0,0,0,1,11,4,1,2,2,3,3,2,1, , ,1, , , , , , ,8, ,1,1, ,1, , , , , , , , , , , ,1,1,2,0,1,0,3,1,3,1,3,3,3,3,3,2,2,3,3,3,1,3,2,1,3,4,2,4,1,4,3,3,3,3,3, ,1,1,0,0,0,0,0,0,3,3,3,3,3,3,5,2, ,8,2,2, ,2,1,1,1, ,1,1, , , 
415,1,5,1,1,1, , , ,1, , , , , ,4,5,5,5,5,1,1,1,3,3,3,0,0,1,0,0,0,11,5,5,1,5,1,5,1,2,1,1,1, ,1,1, , , ,3, ,1,1, ,1, , , ,1,1, , , ,3,1,1,0,1,1,3,0,2,0,0,2,2,3,1,3,1,1,1,1,2,2,5,4,4,5,5,4,4,4,4,5,4,5,1,5,1,1, ,1,1,0,0,0,0,0,0,3,5,3,5,5,3,1,1, ,8,2,1,"Ms Riley, I check in with her once a week",1, , , ,1,0, , , , 
416,1,3,1,1,1, , , , , , , , , ,3,5,5,4,4,1,1,1,2,3,2,0,0,0,0,0,1,11,4,1,2,1,1,2,1,1,1, ,1, , ,1, , , ,8, ,1, , , ,1, , , , , , , ,1,2,1,0,0,0,1,1,0,0,0,0,0,2,1,1,1,1,1,1,1,1,3,3,3,5,2,3,2,3,2,5,3,4,1,3,1,1, ,1,1,0,0,0,0,0,0,4,3,3,3,3,4,1,1, ,8,2,2, ,2,1, , , ,0, , , , 
417,1,4,1,1,1,1,1, ,1, , , , , ,4,4,4,4,5,2,2,1,3,3,3,0,0,0,0,0,1,10,5,1,1,3,3,2,4,4,1, , , , ,1, , , ,8, , ,1, , , , , , , , , , ,1,3,1,0,0,0,0,3,0,0,0,0,0,2,2,2,1,1,1,1,1,1,1,4,4,3,1,3,3,3,3,1,1,4,1,4,1,1, ,0,1,0,0,0,0,0,0,4,2,3,2,2,3,2,1, ,9,1,2, ,2, , , ,1,0, , , , 
418,1,3,1,1, , , , , ,1, , , , ,2,5,3,4,5,2,1,1,3,3,3,1,0,0,0,0,0,11,4,2,2,3,1,2,3,3,1, ,1, , ,1,1, ,at family events,6,1, , , , , , , , , , , , ,3,2,1,1,2,0,0,2,2,0,0,1,1,3,3,2,3,2,3,1,2,1,4,2,2,5,1,4,3, ,2,2,2,4,2,3,2,4, ,0,0,0,0,0,0,0,1,3,2,3,4,2,2,1,2, ,8,2,1, ,2, , , , ,0, , ,1,irish
422,1,4,1,1,1, , , , , , , ,1,Dog,5,4,5,3,5,1,2,1,2,3,2,0,0,0,0,0,1,11,4,1,2,4,1,2,4,1,1, , , , ,1, , , ,8, ,1,1, ,1, , , , , , , , ,3,1,1,1,0,0,0,1,1,2,0,0,0,4,1,3,2,2,2,1,1,1,3,2,4,4,1,4,3,1,3,1,1,3,2,4,4,1, ,1,0,0,0,0,0,0,0,5,5,2,2,2,5,1,2, ,8,2,2, ,1, , , ,1,0, , , , 
424,1,5,7,1,1, , , , , , , , , ,1,4,4,5,5,3,2,2,3,2,3,0,0,0,0,0,1,10,5,1,2,5,2,4,4,3, , , , , , ,1, ,I don't have limits but I usually try finishing homework before using my phone.,8, ,1, , , ,1, , , , , , , ,2,4,1,0,1,0,2,1,0,0,1,0,1,4,1,3,2,1,1,1,1,1,1,4,4,4,1,4,2,3,4,1,1,5,2,4,2,4, ,1,0,0,1,0,0,0,0,4,4,3,5,3,3,2,2, ,10,1,2, ,1, , , ,1,0, ,1, , 
425,1,4,1,1,1, , ,1, , , , , , ,4,5,3,3,5,2,3,1,3,3,3,0,1,0,0,0,0,11,4,1,1,3,1,2,5,3, , , , , , , ,1, ,8,1, , , , , , , , , , ,1,myself,2,3,1,1,1,0,0,2,2,2,1,0,1,4,4,4,4,4,4,1,2,2,4,2,4,1,1,4,3,2,2,2,2,3,3,3,3,1, ,0,1,0,0,0,0,0,0,4,4,2,2,1,3,6,2, ,8,1,2, ,1, , , ,1,0, , , , 
426,1,3,1,1,1,1, , , , , , , , ,4,4,4,3,5,2,2,2,3,2,2,0,0,0,0,0,1,12,3,2,2,4,2,5,2,4,1, ,1, ,1,1, , , ,8, ,1, , ,1, , , , , , , , ,2,2,1,0,2,0,1,2,0,0,1,1,1,3,3,2,1,1,1,2,2,2,4,3,3,4,1,3,4,3,2,1,1,3,2,4,2,1, ,1,1,0,1,0,0,0,0,5,4,4,2,2,4,3,2, ,10,3,2, ,1, , , ,1,1, , , , 
428,1,3,3,1, , ,1,1, , , , , , ,1,3,1,1,5,2,3,3,3,2,2,1,0,0,1,0,0,8,5,1,2,5,4,5,4,3, , , , , , , ,1, ,8, , ,1, ,1, , , , , , , , ,1,2,2,1,3,2,0,3,0,3,2,2,2,3,3,3,1,1,2,2,2,3,4,2,3,2,1,4,1,2,4,1,3,1,5,2,5,4, ,1,0,0,0,0,1,0,0,5,4,4,3,4,4,5,2, ,9,2,2, ,1, , , ,1,0,1, , , 
431,1,3,6,1, , , ,1, , , , , , ,4,4,5,4,5,1,1,1,2,2,2,0,0,0,0,0,1,12,1,3,3,4,1,3,3,2,1, , , , ,1, ,1, ,5, , ,1, ,1, , , , , , , , ,1,3,1,0,0,0,2,1,0,1,1,0,0,3,3,3,2,2,2,1,2,1,3,3,3,1,1,3,3,3,3,1,1,3,1,3,2,1, ,1,0,0,1,0,0,0,0,4,2,3,3,3,4,4,1, ,10,2,2, ,2, ,1, , ,1, , , , 
432,1,5,1, ,1, , , , , , , , , ,5,4,4,4,5,1,1,1,2,2,2,1,0,0,0,0,0,12,3,5,2,5,1,4,1,2,1, ,1, , , , , , ,4,1, , , , , , , , , , , , ,1,1,1,0,0,0,0,3,0,0,1,0,0,3,3,3,1,1,1,1,1,1,4,3,3,5,1,3,4,3,3,1,1,5,1,5,1,1, ,0,0,0,0,0,0,0,1,3,3,3,3,3,3,1,1, ,10,2,2, ,2, ,1,1, ,1,1, , , 
433,1,3,3,1,1, , , , , , , , , ,2,5,4,4,3,1,2,2,3,3,2,0,0,0,0,0,1,11,4,3,2,4,1,5,4,3,1, ,1, , , , , , ,8, ,1, ,1, , , , , , , , , , , , , , , , , , , , , , , , , , , , , , , , , , , , , , , , , , , , , , , , ,999,999,999,999,999,999,999,999, , , , , , , ,1, ,8,3,2, ,2, , , , ,0,1, , , 
434,1,3,1,1, ,1,1, , ,1, , , , ,4,4,4,3,5,4,3,1,2,2,2,0,0,0,0,0,1,10,5,1,1,4,1,3,1,4, , , , , , ,1, , ,8, ,1,1, ,1, , , , , , , , ,1,1,1,1,0,1,1,2,1,0,1,1,0,2,2,4,1,1,1,1,1,1,3,2,4,4,1,3,1,1,3,1,4,1,1,2,4,1, ,1,1,0,0,0,1,0,0,4,2,2,4,4,4,5,2, ,9,4,2, ,2, , , ,1,0, , , , 
436,1,4,1,1,1,1, , , , , , , , ,4,4,2,2,4,3,2,1,2,3,2,0,1,0,0,1,0,10,5,1,2,5,2,2,5,3, , , , , , , ,1, ,8, , , , ,1, , , , , , , , ,1,2,2,0,3,2,3,1,2,3,2,3,0,2,1,1,4,4,4,1,3,3,3,3, ,5,5,4,5,4,1,2,1,1,5,1,5,1, ,1,0,0,0,0,0,0,0,4,1,1,4,4,1,1,2, ,8,5,1,i have accademic support cause im not the smartest,1, , , ,1,0, , , , 
437,1,1,1,1, , , , , , , , , , ,5,3,1,3,2,3,2,1,2,2,2,0,0,0,1,0,0,8,3,1,3,4,1,2, ,3, , , , , , , ,1, ,8, ,1, , , ,1, , ,1, , , , ,2,1,2,2,2,2,3,2,1,3,2,3,3,3,1,4,4,4,4,2,2,2,4,2,4,4,2,4,1,4,1,4,4,3,3,3,3,1, ,0,0,1,0,0,0,0,0,4,4,4,2,2,2,3,2, ,8,3,1,math,2, , , ,1,0, , , , 
440,1,5,1,1,1, , ,1,1, , , , , ,4,4,4,4,3,2,2,2,2,2,2,0,0,0,0,0,1,12,5,1,3,5,2,5,5,2, , , , , ,1, , , ,8, ,1, , , , , ,1, , , , , ,1,1,1,1,1,1,1,2,1,1,2,1,1,3,3,3,3,3,3,3,3,3,4,4,4,4,4,4,4,4,4,4,4,1,5,1,5, , ,1,1,0,1,1,1,1,0,4,4,4,4,4,4,2,2, ,10,2,2, ,2, , , ,1,0, , ,1,Portuguese
442,1,4,1,1, , ,1,1, , , , , , ,5,4,3,4,4,3,3,2,2,2,2,0,1,0,0,0,0,12,4,1,2,4,2,2,4,2, , , , , , , ,1, ,8, ,1,1, ,1,1, , , , , , , , , , ,2,2,0,0,3,0,2,2,1,0,4,4,4,4,4,4,2,2,2,4,4,4,4,2,2,2,2,2,2,2,2,3,2,4,1, ,1,0,0,1,0,0,0,0,4,4,4,4,4,3,3,2, ,9,1,2, ,1, , , ,1,0, , , , 
443,1,3,1,1,1,1, , , , , , , , ,6,3,4,2,4,4,5,4,2,2,1,0,1,0,1,0,0,10,3,2,3,4,1,3,4,3, , , , , , , ,1, ,8, ,1,1,1,1,1,1, ,1,1, , , ,2,3,4,3,3,2,3,2,1,3,2,2,2,4,3,3,4,3,3,3,2,2,4,1,3,3,1,4,1,4,3,2,3,3,4,2,5,5,pansexual.,1,1,0,1,1,1,0,0,4,3,4,4,5,5,3,2, ,8,4,2, ,2, , , ,1,0, , , , 
445,1,4,1,1,1,1,1, , , , , , , ,3,4,4,3,5,3,3,2,2,2,2,0,0,0,0,1,0,11,4,1,2,4,2,3,3,5,1, ,1, , , , , , ,8, , ,1, ,1, , ,1, , , , , ,3,3,2,1,2,1,1,1,2,1,1,1,2,3,2,2,2,3,2,2,1,2,3,4,4,4,2,3,3,2,1,1,1,3,4,3,3,1, ,1,1,0,1,0,0,0,0,4,3,3,4,3,3,4,2, ,10,2,2, ,1, , , ,1,0, , , , 
447,1,4,1,1,1, ,1,1, ,1, , , , ,4,4,5,3,4,1,1,1,3,2,3,0,0,0,0,0,1,11,4,1,1,4,2,3,5,3,1, , , , , , , , ,8, , ,1, ,1, , , ,1, , , , ,1,3,1,1,1,1,2,0,2,3,1,1,1,3,3,2,3,3,2,2,2,2,3,4,4,4,1,3,2,3,2,2,3,3,1,4,2,1, ,1,0,1,1,0,0,0,0,4,1,1,4,3,4,2,2, ,8,1,2, ,1, , , ,1,0, , , , 
449,1,4,1,1,1, , ,1,1, , , , , ,5,5,4,4,5,2,2,1,3,3,3,0,0,0,0,0,1,12,4,3,2,5,4,5,2,3,1, , , ,1, , , , ,8, ,1, , , ,1, , , , , , , ,3,4,1,0,1,0,0,2,1,0,1,1,1,4,4,4,2,2,1,1,2,2,4,4,4,4,1,4,4,3,4,4,2,4,2,4,2,1, ,1,1,0,0,0,0,0,0,4,4,3,3,2,5,1,2, ,9,1,2, ,1, , , ,1,0, , , , 
454,1,2,3,1,1,1, , , , , , , , ,1,3,2,2,2,1,4,2,2,2,3,0,0,0,1,0,0,10, , , , , , , , , , , , , , , ,1, ,8, , , , , , , , , , , , , , , , ,1,2,0,0,2,0,2,0,0, ,1,1,1,2,2,1,1,1,1,1,3,4,3,1,3,2,1,3,1,2,3,4,3,5,1, ,1,0,1,0,1,0,0,0, , , , , , ,4,2, ,10,3,2, ,2, , , , , , , ,1,Brazillian
455,1,3,3,1,1, , ,1,1,1, , , , ,1,1,2,4,5,3,2,1,3,3,3,1,0,1,0,0,0,8,4,1,2,3,4,1,5,5,1, , , , , , , , ,8,1,1, , , , , , , , , , , , , , ,0,0,0,0,3,0,0,3,0,0,2,3,2,3,2,3,1,1,1,3,3,3,3,3,3,3,3,3,3,3,3,3,3,3,1, ,0,0,0,0,0,1,0,0,3,3,3,3,3,3,1,2, ,8,3,2, ,2, , , , ,0,1, , , 
456,1,3,1,1,1, , , ,1, , , , , ,4,4,2,4,5,3,3,2,3,3,3,0,0,0,0,0,1,11,5,1,3,4,1,3,3,2, , ,1, , , , , , ,6, ,1, , , ,1, , , , , , , ,3,3,2,0,1,0,0,1,0,0,0,0,0,3,3,3,1,1,1,1,1,1,2,3,4,5,5,4,3,4,3,5,5,4,2,3,2,1, ,1,0,0,0,1,0,0,0,2,2,3,2,2,3,2,2, ,8,1,2, ,2, , , ,1,0, , , , 
457,1,3,6,1,1, , , ,1,1, , , , ,2,3,3,2,2,1,3,2,2,2,2,0,1,0,0,0,0,12,2,4,2,2,1,1,2,1,1, , , , , , , , ,3, , ,1, , , , , ,1,1, , , ,3,2,1,0,1,0, , ,0,0,1,1,0,4,3,4,3,3,4,3,3,3,2,4,4,5,5,5,4,5,5,5,5,3,1,1,1,4, ,0,0,0,0,0,0,0,1,2,4,4,2,3,2,6,1, ,9,4,2, ,1, , , , ,0, , ,1,european
458,1,3,1,1,1,1, ,1, , , , , , ,4,4,3,3,1,1,1,1,3,3,2,0,1,0,0,0,0,14,1,1,1,1,1,1,5,3,1, , , , , , , , ,8, ,1, , , ,1, , ,1, , , , , , , ,0,1,0,0,1,0,2,1,0,0,2,1,1,1,1,1,2,1,1,4,1,1,1,1,1,1,1,1,1,1,3,1,1,2,1, ,1,0,0,0,1,1,0,0,1,1,1,1,1,1,6,2, ,10,2,2, ,1, , , ,1,0, , , , 
459,1,1,1,1, ,1, ,1, ,1,1, , , ,4,4,5,5,5,1,1,1,2,2,2,0,1,0,1,0,0,0,5,1,2,1,1,1,1,3, , , , , , , ,1, ,8,1, , , , , , , , , , , , ,1,3,1,0,0,0,3,0,1,2,0,2,3,1,3,3,1,1,1,2,1,1,3,3,3,3,1,3,2,3,3,1,1,5,1,3,1,1, ,0,0,0,0,0,0,0,1,2,1,3,1,4,1,6,1, ,9,4,1,dont know it.,2, , , ,1,0, , , , 
460,1,4,1,1,1,1,1,1, , , , , , ,5,5,4,4,5,3,2,1,3,2,2,0,1,0,0,0,0,12,4,1,1,5,2,2,3,4,1, , , , , , , , ,8,1, , , , , , , , , , , , ,1,2,1,0,2,0,0,2,0,0,0,0,2,2,1,2,3,3,2,1,1,1,2,3,4,3,1,4,2,4,2,1,1,4,1,4,1,1, ,1,1,0,1,0,0,0,0,2,1,4,1,1,1,4,1, ,9,2,2, ,1, , , ,1,0, , , , 
464,1,5,1,1,1, , , ,1, , , , , ,4,4,5,3,5,2,3,2,2,3,2,0,1,0,1,0,0,11,5,5,3,2,2,4,2,1,1, ,1, , ,1, , , ,4, ,1, , , ,1, , , , , , , ,1,2,4,0,0,0,2,0,2,2,2,0,2,3,4,3,3,1,1,1,2,2,4,4,3,5,1,1,4,4,4,4,1,4,1,4,2,1, ,1,1,1,0,0,0,0,0,5,5,5,3,4,2,1,1, ,9,3,1,I have a 504. I don't know if that counts though.,2, , , , ,0, , ,1,"Mixed. Irish, Syrian, and Lebanese."
465,1, ,1,1,1,1,1, , , , , , , ,4,5,5,5,5,2,2,1, , , ,0,0,0,0,0,1, , , , , , , , , , , , , , , , , , , , , , , , , , , , , , , , , , , , , , , , , , , , , , , , , , , , , , , , , , , , , , , , , , , , , , , ,999,999,999,999,999,999,999,999, , , , , , , ,1, ,9,2,2, ,2, , , ,1,0, , , , 
466,1,3,1,1,1, , ,1, , , , , , ,4,5,4,4,5,1,1,1,3,3,2,0,0,0,0,0,1,10,4,1,2,5,3,4,3,3, , ,1, , , ,1, ,when i am working on my homework,7, , ,1, , , , , , , , , , , , , , , , , , , , , , , , , , , , , , , , , , , , , , , , , , , , , , , , , ,0,0,0,0,0,0,0,1, , , , , , , ,1, ,8,2,1,academic support,1, , , ,1,0, , , , 
467,1,2,1,1,1,1, , , , , , , , ,3,4,2,5,5,1,1,1,1,2,2,0,0,0,1,1,0,12,4,1,1,1,1,1,5,3, , , , , , , ,1, ,8, , , , , ,1, , , , , , , ,1,1,1,2,2,3,3,2,1,0,2,2,1,1,2,1,1,1,1,3,1,2,2,3,4,3,1,3,1,4,4,1,1,3,4,4,5,1, ,1,0,0,1,0,0,1,0,5,5,5,3,5,2,6,2, ,10,2,2, ,2, , , ,1,0, , , , 
468,1,4,1,1, , , ,1, ,1,1, ,1,My dog,3,4,5,2,5,1,2,1,1,2,3,0,0,0,0,0,1,0,4,1,2,1,1,1,3,2,1, , , , , , , , ,8, , , , ,1, , , ,1, , , , ,1,3,2,0,1,2,1,1,0,3,2,2,0,1,2,2,1,1,1,1,1,2,4,3,4,3,1,1,2,4,3,5,2,4,1,3,2,2, ,1,0,1,1,1,0,1,0,4,5,4,2,4,4,6,1, ,9,2,2, ,2, , , ,1,0, , , , 
469,1,2,1,1,1, ,1, , , , , , , ,4,4,5,3,5,2,3,2,2,2,2,1,0,0,0,0,0,10,4,2,3,3,1,1,4,2, , ,1, , ,1, , , ,6, , ,1, ,1, , , ,1, , , , ,1,2,1,1,2,1,1,1,1,0,2,2,0,3,3,4,1,1,1,1,3,2,2,4,4,4,1,4,2,4,2,3,1,3,1,3,3,1, ,0,0,0,0,0,0,0,1,5,2,2,4,3,5,2,1, ,8,3,2, ,2, , , ,1,0, , , , 
471,1,3,1,1,1, ,1,1,1, , , , , ,4,4,4,3,5,1,1,1,3,3,2,0,0,0,0,0,1,11,4,1,1,4,1,1,3,3,1, ,1, , ,1, , , ,4, , ,1, ,1, , , ,1,1, , , , , , ,0,1,0,1,1,0,0,3,1,1,3,3,3,2,2,2,1,2,2,3,2,4,4,1,4,4,1,4,1,1,1,5,1,5,1, ,1,0,0,1,0,0,0,0,4,4,3,3,5,5,2,2, ,9,2,2, ,1, , , ,1,0, , , , 
472,1,3,1,1,1, , ,1, , , , , , ,3,4,4,3,5,2,2,1,3,3,3,0,0,0,0,0,1,11,3,2,2,5,1,3, ,1,1, , , , , , , , ,5, , , ,1,1, , , , , , , , ,1,1,1,1,2,0,0,1,1,1,1,0,1,3,3,3,3,3,3,2,2,1,3,4,4,4,1,4,4,1,3,2,1,3,3,3,3,1, ,0,0,0,0,0,0,0,1,5,4,3,4,3,4,2,2, ,9,3,2, ,2, , , ,1,0, , , , 
473,1,5,1,1,1,1, , , , , , , , ,4,5,4,4,5,2,1,1,1,2,1,0,0,0,0,0,1,10,5,3,3,4,1,1,3,1, , , , , ,1, , , ,8, ,1, , , , , ,1,1, , , , ,1,4,1,1,2,0,1,1,1,0,0,0,2,3,4,4,1,1,1,2,1,2,3,4,4,3,1,4,1,4,3,4,2,4,3,4,2,1, ,0,1,0,1,1,0,0,0,5,5,5,5,5,5,1,2, ,10,1,2, ,2, , , ,1,0, , , , 
474,1,3,1,1,1, ,1, ,1, , , , , ,5,4,4,3,3,3,3,1,2,2,2,0,0,0,0,0,1,10,3,2,2,2,2,2,4,3, , , , , , , ,1, ,8,1, , , , , , , , , , , , , , , ,0,0,0,0,3,0,0,0,0,0,3,1,1,1,1,1,1,1,1,3,3,3,3,3,3,3,2,2,3,3,5,1,3,1,1, ,0,1,0,1,0,1,0,0,3,1,1,1,1,1,6,2, ,8,2,1,ela and math,2, , , ,1,0, , , , 
477,1,3,1,1,1, ,1, , , , , , , ,3,4,3,3,5,3,3,1,3,2,2,0,0,0,0,0,1,9,4,1,1,3,2,3,3,3, , , , , , , ,1, ,8, ,1,1, ,1, , , ,1,1, , , ,1,1,1,0,0,0,0,2,0,0,1,0,0,2,1,1,1,1,1,2,2,2,3,3,2,3,1,3,2,2,2,1,1,3,2,3,2,1, ,1,0,0,0,0,0,0,0,3,2,2,3,1,1,2,1, ,9,2,2, ,1, , , ,1,0, , , , 
480,1,3,1,1, , ,1, , , , , , , ,4,5,4,3,5,1,3,3,3,3,2,0,1,0,0,0,0,12,4,1,1,3,2,2,4,4,1, ,1, , , , , , ,4, , , , , ,1, , , , , , , ,1,2,1,1,1,0,0,1,0,0,0,1,0,3,4,4,2,1,1,2,2,1,3,4,4,4,1,3, ,3,4,1,3,3,1,3,2,1, ,1,0,0,1,1,0,0,0,4,2,2,4,1,3,5,1, ,9,2,2, ,2, , , ,1,0, , , , 
483,1,4,1,1,1, ,1,1,1, , , , , ,3,4,4,3,5,1,1,1,3,3,3,1,0,0,0,0,0,12,3,1,3,5,3,4,4,3,1, , , , ,1, , , ,8, ,1,1, ,1,1, ,1,1, , , , ,1,1,1,0,0,0,0,2,0,2,2,0,0,3,3,2,3,3,2,2,2,2,3,3,3,3,1,4,4,2,3,3,1,2,4,1,3,1, ,1,0,0,0,0,0,0,0,4,4,3,4,2,4,5,2, ,9,1,2, ,1, , , ,1,0, , , , 
486,1,4,1,1, , ,1, , , , , , , ,4,5,4,5,5,2,1,1,3,3,3,0,0,0,0,0,1,11,5,1,2,5,3,1,4,2, , , , , , , ,1, ,8, , ,1, ,1, , , , , , , , ,2,2,2,0,0,0,0,2,0,0,2,0,0,2,3,3,3,3,2,1,1,1,2,3,4,4,1,4,4,3,2,1,1,3,1,4,4,1, ,0,1,0,0,0,0,0,0,5,3,4,2,3,4,2,2, ,9,1,2, ,2, , , ,1,0, , , , 
487,1,3,1,1,1, , ,1, , , , , , ,4,5,4,3,5,3,3,1,3,3,3,0,0,0,0,0,1,11,3,1,3,5,4,5,5,3,1, ,1, , , , , , ,8, ,1, , ,1, , , , , , , , ,1,3,1,0,0,0,0,0,0,0,0,0,0,1,1,1,2,2,2,1,1,1,1,3, ,3,1,4,3,4,3,1,1,3,3,2,4,1, ,1,0,0,0,0,0,0,0,3,2,1,1,1,3,2,2, ,9,1,2, ,2, , , ,1,0, , , , 
488,1,4,1,1,1, ,1,1, , , , , , ,5,5,3,3,5,3,2,1,2,2,2,0,0,0,0,0,1,11,4,1,1,5,1,5,3,2, , , , , , , ,1, ,8, ,1,1,1, ,1, , , , , , , , , , ,0,1,0,2,1,0,0,2,1,0,4,3,3,1,1,1,2,3,1,3,4,4,5,1,4,4,5,3,3,3,3,1,3,2,1, ,0,1,0,0,0,0,0,0,2,2,4,1,3,3,2,2, ,8,1,2, ,1, , , ,1,0, , , , 
489,1,4,1,1,1,1,1, , , , , , , ,4,4,4,4,4,2,4,3,3,2,2,0,1,0,0,0,0,11,5,1,1,5,4,4,2,1, , , , , , , ,1, ,8, ,1,1, ,1, , , , , , , , , , , ,1,1,0,2,1,1,0,0,1,1,2,2,2,2,2,2,2,3,2,2,4,4,4,1,3,4,1,4,3,1,3,4,3,3,1, ,1,1,0,0,0,1,0,0,3,3,4,4,3,3,1,2, ,8,2,2, ,1, , , ,1,0, , , , 
490,1,4,1,1,1, , ,1,1, , , , , ,5,5,4,4,5,2,2,2,3,3,3,0,1,0,0,0,0,12,5,1,1,5,3,5,2,3,1, , , , , , , , ,8, ,1, ,1, ,1, , , , , , , ,1,3,1,1, ,2,2,2,2,2,2,3,1,4,4,4,2,2,2,2,3,3,3,4,4,1,1,4,4,3,4,2,1,2,1,2,4,1, ,0,1,0,0,0,1,0,0,5,5,5,5,5,5,1,2, ,10,1,2, ,2, , , ,1,0, , , , 
491,1,2,1,1, , ,1, , ,1, , , , ,5,4,3,5,4,4,2,1,3,3,3,0,0,0,0,0,1,10,5,1,2,4,1,2,5,2,1, , , , , ,1, ,I'm not allowed to during meals but usually use it anyways.,8, , , , , , , , ,1, , , , ,1,1,1,0,0,0,0,3,0,0,0,0,0,4,4,3,3,3,3,2,2,2,3,2,4,5,1,4,5,4,1,1,3,4,3,4,5,4, ,0,1,0,0,0,0,0,0,1,5,1,2,5,1,6,1, ,9,1,2, ,2, ,1, , ,0, , , , 
493,1,4,3,1,1,1, , , , , , , , ,2,4,3,4,5,2,2,2,3,2,2,0,0,0,0,0,1,12,5,3,3,3,3,4,1,2,1, , , , ,1, , , ,5, , , , ,1, , , , , , , , , , , ,1,2,0,1,1,1,2,1,0,0,2,2,3,1,1,1,1,2,2,2,4,4,3,1,3,2,1,3,3,2,3,3,4,3,1, ,1,0,0,0,0,0,1,0,3,4,3,4,2,4,2,2, ,8,2,2, ,2, , , , ,0,1, , , 
495,1,4,1,1, ,1,1, , , , , , , ,4,4,2,1,4,5,3,1,2,2,2,0,1,0,0,0,0,10,4,1,3,3,1,3,5,1, , ,1, ,1, , , , ,7, ,1,1,1,1,1,1,1,1,1, , , ,1,1,4,0,0,0,1,3,0,0,1,0,1,4,4,4,1,1,1,1,1,2,1,1,4,1,1,3,4,4,4,3,3,1,1,4,1,1, ,0,1,0,0,0,0,0,0,1,2,2,1,4,1,6,1, ,8,5,2, ,1, ,1, , ,0, , , , 
496,1,5,1,1,1, , , ,1, , , , , ,2,5,5,5,5,5,3,1,3,3,3,0,0,0,0,0,1,8,4,1,1,1,1,1,4,5, , , , , , , ,1, ,8, , , , , , , , , , , , , , , , , , , , , , , , , , , , , , , , , , , , , , , , , , , , , , , , , , ,5,no,999,999,999,999,999,999,999,999, , , , , , , ,2, ,8,2,2, ,2, , , ,1,0, , , , 
497,1,3,1,1,1, ,1,1, , , , , , ,5,4,4,4,4,1,1,2,3,3,2,0,1,0,0,0,0,13,4,1,1,4,2,4,2,1,1, , , , ,1, , , ,8, ,1,1, ,1, , ,1, , , , , , , , ,0,2,1,0,0,1,1,0,0,1,3,2,3,2,2,2,1,1,2,1,4,4,4,1,3,4,1,4,1,3,3,2,4,3,1, ,1,1,0,1,0,1,0,0,5,4,4,4,3,5,2,2, ,9,1,2, ,2, , ,1,1,0, , , , 
498,1,3,1,1,1,1, , , , , , , , ,5,5,4,5,5,1,1,1,3,3,3,0,0,0,0,0,1,12,4,3,2,5,3,4,2,2,1, , , , ,1, , , ,4, ,1,1, ,1, , , ,1, , , , ,2,2,1,0,1,0,1,1,0,1,0,0,0,2,1,1,3,1,1,1,1,1,2,4,2,4,1,4,4,1,4,1,2,4,2,5,2,1, ,1,1,0,0,0,0,0,0,5,3,1,4,3,5,1,2, ,8,1,2, ,1, , , ,1,0, , , , 
499,1,4,2,1, , , , ,1,1, , , , ,2,4,3,2,2,4,4,2,3,3,2,0,0,0,0,0,1,14,1,1,2,4,2,3,3,2, , , , , ,1, , , ,8, , , , ,1, , , , , , , , ,2,2,1,1,3,2,3,1,2,1,1,1,2,2,4,4,4,4,4,2,2,2,3,2,3,5,2,4,2,5,4,1,2,2,1,1,1,2, ,1,0,0,1,1,1,1,0,3,4,3,2,5,3,5,2, ,9,3,2, ,2, , , , ,1,1, , , 
500,1,3,1,1,1,1,1, , , , , , , ,4,5,4,4,5,3,3,1,3,3,2,0,0,0,0,0,1,10,1,1,1,4,1,3,1,3, , , , , , , ,1, ,8, , ,1, , , , , , , , , , ,3,3,1,0,1,0,3,0,0,1,1,0,0,3,3,1,1,1,1,1,1,1, ,4,4,4,1,4,3,4,2,1,1,5,1,5,1,1, ,0,0,0,0,0,1,0,0,1,1,1,1,1,1,4,1, ,8,2,2, ,2, ,1, ,1,0, , , , 
501,1,3,1,1,1,1, , , , , , , , ,4,4,4,2,4,3,3,2,3,2,2,0,1,0,0,0,0,12,4,1,2,4,2,3,4,2, , , , , , , ,1, ,8, , , , ,1, , , , , , , , ,2,2,2,0,0,0,0,0,0,0,0,0,0,2,2,2,1,1,1,1,1,1,3,2,4,2,1,4,2,4,3,1,1,4,2,3,3,1, ,0,1,0,1,0,0,0,0,4,2,2,2,2,2,5,1, ,9,3,2, ,2,1, , ,1,0, , , , 
506,1,3,1,1,1, , ,1, , , , , , ,5,5,5,5,5,1,1,1,3,3,3,0,0,0,0,0,1,0,5,5,1,3,3,3,1,1,1, ,1, ,1,1, , , ,3, ,1, , ,1, , , , , , , , , , , ,0,0,0,0,1,0,0,0,0,0,3,1,1,1,1,1,1,1,1,2,1,5,5,1,1,5,1,5,1,1,5,1,5,1,1, ,0,0,0,0,0,0,0,1,2,2,3,3,3,3,2,2, ,8,1,2, ,1, , , ,1,0, , , , 
509,1,3,1,1,1,1, , , , , , , , ,4,4,4,4,5,2,2,1,3,3,2,0,0,0,0,0,1,10,4,2,1,4,2,3,3,2,1, ,1, , , , , , ,8, ,1,1, ,1, ,1, , , , , , ,2,4,3,0,1,0,2,1,3,0,1,1,1,3,4,4,1,1,2,3,2,2,2,4,4,5,1,3,3,4,3,1,2,4,3,3,2,1, ,1,1,0,1,0,0,0,0,5,4,2,2,3,3,1,1, ,9,1,2, ,2, , , ,1,0, , , , 
510,1,3,1,1,1,1, , , , , , , , ,5,4,4,4,3,3,2,2,1,2,3,0,0,0,0,0,1,11,3,1,2,1,1,1,5,3, , , , , , , ,1, ,8, , ,1, , , , , , , , , , ,2,4,2,0,1,0,0,2,0,0,2,0,1,2,3,2,2,2,2,1,1,1,3,4,4,4,1,3,4,4,4,2,1,5,1,4,2,1, ,1,1,1,0,0,0,0,0,4,4,4,3,1,4,3,1, ,9,2,2, ,1, , , ,1,0, , , , 
511,1,3,1,1,1, , , , , , , ,1,dog,4,5,5,5,5,5,1,1,3,3,3,0,0,0,0,0,1,10,5,1,3,5,2,3,5,3, , , , , , , ,1, ,8, , ,1, , , , , , , , , , ,1,4,1,0,0,0,0,2,0,0,0,0,0,1,1,1,1,1,1,1,1,1,1,3,3,3,1,3,3,3,3,1,1,5,2,5,1, , ,1,0,0,0,0,0,0,0, , , , , , ,1,1, ,10,2,2, ,2,1, , ,1,0, , , , 
515,1,3,1,1,1, , , , , , , , , ,6,5,4,3,5,3,3,2,2,2,3,0,0,0,0,0,1,10,4,1,3,4,1,3,4,2, , ,1, , , , , , ,8,1, , , , , , , , , , ,1, ,1,1,1,0,0,0,0,2,0,0,0,0,0,2,1,1,1,1,1,1,1,1,1,3,4,4,1,3,3,4,3,2,1,5,1,5,1,1, ,0,0,0,0,0,0,0,1,2,2,2,2,2,2,2,1, ,8,4,1, ,2, , , ,1,0, , , , 
516,1,4,1,1,1, , , , , , , ,1,Twin sister,4,4,5,3,5,1,1,2,3,3,2,0,0,1,0,0,0,11,5,2,3,3,3,4,2,2,1, , , , ,1, , , ,8, ,1, , ,1, , , , , , , , ,1,4,1,1,3,0,1,2,0,1,2,1,1,2,3,3,1,2,1,2,3,3,4,2,3,3,1,3,3,1,3,2,1,1,4,2,5,1, ,1,1,0,1,0,0,0,0,4,3,1,2,3,3,4,2, ,8,2,2, ,1, , , ,1,0, , , , 
517,1,2,1,1,1, , , ,1, , , , , ,4,3,4,3,3,2,2,2,2,2,2,0,1,0,0,0,0,13,3,3,4,4,4,3,3,2,1, , , , , , , , , , ,1, , ,1, , , , , , , , ,1,1, ,0,0,0,0,3,0,0,3,0,0,3,2,2,2,2,2,2,1,1,2,1,4,4,1,4,3,4,2,1,2,3,2,2,4,1, ,1,1,0,0,0,0,0,0,3,4,3,1,3,2,3,1, ,10,2,2, ,2,1, , ,1,0, , , , 
518,1,3,1,1,1, ,1, , , , , , , ,5,4,3,3,5,2,1,2,3,3,3,0,0,0,0,0,1,12,3,1,2,4,1,1,5,3,1, , , , , , , , ,5, ,1,1, ,1, , , ,1, , , , ,1,1, , , , , , , , , , , , , , , , , , , , , , , , , , , , , , , , , , , , , ,1,1,0,0,0,0,0,0, , , , , , , ,1, ,10,1,2, ,1, , , ,1,0, , , , 
519,1,3,1,1,1, , , ,1, , , , , ,5,5,3,3,5,1,1,1,3,3,3,0,1,0,0,1,0,12,3,3,3,5,4,5,1,3,1, ,1, ,1,1, , , ,4, , ,1, ,1, , , , , , , , ,1,1,1,0,0,0,3,1,0,0,1,0,0,4,2,4,1,1,1,1,1,1,3,4,5,5,1,5,1,1,1,1,1,4,3,3,2,2, ,1,1,0,0,0,0,0,0,4,3,2,2,2,2,2,2, ,8,3,1," I get extra help on quizzez, test, and sometimes homework if I really am stuck.",1, , , ,1,0, , , , 
521,1,5,1,1, ,1,1, , , ,1, , , ,5,5,5,4,5,1,1,2,2,2,2,0,1,0,0,0,0,11,5,2,2,4,5,5,4,1,1, , , , , , , , ,8, ,1,1, ,1, , , , , , , , ,2,5,1,0,2,1,2,1,3,3,0,1,1,3,3,3,3,3,3,1,2,2,4,2,2,4,1,4,5,3,3,2,4,2,4,1,5,1, ,1,0,0,0,0,0,0,0,3,3,3,4,3,4,2,2, ,8,2,1,?,2, , , , ,0, ,1,1,Lebanese/arab
522,1,2,1,1,1, , , ,1, , , , , ,3,4,4,3,5,4,4,4,3,3,3,0,0,0,1,0,0,11,5,1,3,5,1,4,1,3, , ,1, ,1,1, , , ,8, ,1, , ,1, , , , , , , , ,2,3,1,3,2,3,2,1,2,1,3,3,3,3,3,3,3,2,2,3,3,3,4,3,4,3,5,4,5,4,4,5,5,2,4,3,5,4, ,1,0,0,1,0,0,1,0,4,4,4,2,5,5,2,2, ,9,4,2, ,2, ,1, ,1,0, , , , 
525,1,2,1,1,1,1,1, , , , , , , ,3,3,2,1,5,1,1,2,2,2,2,0,1,0,1,0,0,13,3,1,2,5,1,3,1,2,1, ,1, ,1,1, , , ,3, ,1, , , ,1, , ,1, ,1, , , , , ,1,3,2,0,2,2,2,2,2,2,3,3,4,2,2,2,1,1,2,1,2,4,4,1,3,3,1,4,1,2,3,4,3,4,1, ,0,1,0,0,0,0,0,0,4,3,5,3,5,5,2,2, ,10,1,2, ,1, , , ,1,0, , , , 
526,1,3,1,1,1, , , , , , , , , ,4,5,4,5,5,3,2,1,3,3,3,0,0,0,0,0,1,12,4,1,2,5,2,5,1,3, , , , , , , ,1, ,8, ,1, , , , , , , , , , , ,2,2,1,0,0,0,2,0,0,1,0,0,2,1,2,3,3,2,1,1,1,1,4,4,3,4,1,4,4,1,3,1,3,4,3,3,5,1, ,1,1,1,0,0,0,0,0,4,2,2,3,2,2,2,2, ,9,1,2, ,2, , , ,1,0, , , , 
527,1,4,1,1,1, , , ,1,1, , , , ,3,4,5,4,5,2,1,1,3,3,2,0,0,0,0,0,1,10,4,3,2,5,2,4,2,3,1, ,1, , , , , , ,5, ,1,1, ,1,1, , , , , , , , , , ,2,2,2,2,2,2,1,1,2,2,4,4,4,4,4,4,1,2,2,3,3,4,3,1,4,3,1,4,2,1,2,4,2,5,1, ,1,0,0,0,0,0,0,0,4,2,4,5,4,4,1,2, ,8,2,2, ,2, , , ,1,0, , , , 
528,1,4,1,1,1, ,1, ,1, , , , , ,5,4,4,4,4,2,2,1,3,2,2,0,0,0,0,0,1,10,4,1,4,5,3,4,3,4,1, , , , , , , , ,8, ,1,1, ,1, , , , ,1, , , ,4,4,1,3,3,2,2,2,0,3,1,3,3,3,1,3,3,3,1,3,1,2,4,4,4,4,1,3,4,2,4,1,4,4,4,4,3,1, ,1,1,0,0,0,0,0,0,4,5,4,5,5,5,5,2, ,9,2,2, ,1, , , ,1,0, ,1, , 
531,1,3,4,1, , ,1, ,1, ,1,1, , ,6,5,5,5,5,5,3,1,3,3,3,0,0,1,0,1,0,8,5,2,3,5,4,5,3,4, , ,1, ,1, , , , ,8, , ,1, , , , , ,1,1, , , ,3,3,2,2,2,2,2,1,2,2,1,2,2,1,3,2,3,2,3,2,2,2,3,3,3,3,3,3,3,3,3,3,3,3,3,3,3,1, ,0,0,0,0,0,0,0,1,3,3,3,3,3,3,4,1, ,8,2,2, ,2, ,1,1, ,0, , , , 
532,1,3,1, ,1, , ,1, , , , , , ,4,4,3,2,3,1,2,3,3,3,3,0,0,0,0,0,1,11,4,4,1,3,1,3,3,4, ,1,1, , ,1, , , ,8, ,1, , , ,1, , , , , , , ,1,1,2,1,1,0,0,2,2,2,0,0,0,4,3,4,2,1,1,1,1,2,4,1,4,4,1,1,3,4,3,1,1,4,1,1,2,3, ,0,1,0,0,0,0,0,0,5,2,2,4,2,5,6,2, ,9,1,2, ,1, , , ,1,0, , , , 
533,1,3,1,1,1, ,1,1, , , , , , ,4,5,5,4,5,2,2,2,3,3,2,0,0,0,0,0,1,10,3,1,3,5,2,5,3,2,1, ,1, , ,1, , , ,8, ,1,1, ,1, , , ,1, , , , ,3,4,2,0,1,0,0,1,1,1,0,0,1,2,1,1,3,3,3,1,1,1,3,4,4,4,1,3,3,4,3,2,1,4,4,3,4,1, ,1,1,0,0,1,1,0,0,4,4,4,3,1,4,2,1, ,8,1,2, ,2, , , ,1,1,1, , , 
534,1,4,1,1, , ,1, , , , , , , ,4,5,5,5,5,5,5,5,3,2,2,0,0,0,0,0,1,8,3,1,2,4,1,1,5,3,1, , , , , , , , ,8, , ,1, ,1, , , , , , , , ,1,1,1,0,3,0,0,1,0,0,0,0,1,3,3,1,2,1,1,2,1,1,4,4,4,4,1,4,4,4,4,1,1,5,3,3,1,1, ,1,1,0,0,0,0,0,0,5,3,3,3,3,5,1,1, ,9,2,2, ,2, , , ,1,0, , , , 
536,1,3,1,1,1, ,1, ,1, , , , , ,4,3,4,3,5,1,1,1,3,3,3,0,0,0,0,0,1,12,4,4,5,5,5,5,3,2,1, , , ,1, , , , ,8, ,1,1, ,1,1,1, , , , , , , , , ,1,1,0,1,0,1,1,0,1,1,1,1,3,3,3,3,2,2,1,4,2,4,5,3,4,4,5,4,2,1,3,4,3,3,1, ,0,1,0,0,0,0,0,0,5,3,3,4,4,5,5,2, ,9,1,2, ,1, , , ,1,0, , , , 
537,1,2,1,1,1, , ,1, , , , , , ,5,3,4,3,5,1,2,3,3,2,2,0,0,0,0,0,1,11,3,1,3,1,1,2,3,1,1, , , , , , , , ,8, , , , , ,1, , , , ,1, , , , , ,2,1,1,3,0,2,0,2,2,2,3,2,3,1,1,1,2,2,2,3,1,4,4,1,1,5,1,5,5,1,3,3,3,3,1, ,1,0,0,0,0,0,0,0,5,4,2,5,5,5,6,2, ,10,1,2, ,1, , , ,1,0, , , , 
538,1,4,1,1,1, , , , , , , , , ,5,5,4,3,2,1,1,1,2,2,3,0,0,0,0,0,1,13,5,1,2,1,1,1,5,1, , ,1, , , , , , ,8,1, , , , , , , , , , , , , , , ,1,1,2,2,0,1,1,0,2,1,3,3,2, ,3,3,2,1,2,4,3,4,5,1,3,3,5,1,1,1,2,1,4,5,1, ,1,0,0,1,1,0,0,0,4,4,4,4,4,4,1,2, ,9,3,2, ,1, , , , ,1,1, , , 
539,1,3,6,1,1, ,1, , , , , , , ,6,5,4,4,5,2,2,1,3, , ,0,0,0,0,0,1,0,5,1,1,3,5,3,3,2, , ,1, , , , , , , , ,1,1, ,1,1, , , , , , , ,3,3,1,0,0,0,0,0,0,0,0,0,0,3,3,3,1,1,1,1,2,1,1,4,4,5,1,3,4,4,4,5,2,5,1,4,2,1, ,0,1,0,0,0,0,0,0,3,4,4,3,3,4,6,1, ,8,1,2, ,1, , , , ,0, , ,1,Indian
542,1,3,1,1, , , , , , , , ,1,Step father not my legal guardian.,4,4,4,3,2,1,1,1,3,3,3,0,0,0,0,0,1,10,1,1,1,1,1,1,5,4,1, , , , , , , , ,8, , ,1, ,1, , , , , , , , ,1,2,1,0,3,0,1,1,0,0,0,0,2,1,1,2,2,2,1,1,1,1,1,3,4,4,1,4,3,3,2,1,1,3,2,3,4,1, ,1,0,0,1,1,1,0,0,5,2,2,3,1,1,2,1, ,10,4,2, ,2, , , ,1,0, , , , 
543,1,4,1,1,1, ,1, ,1, , , , , ,4,5,3,4,5,2,1,1,3,3,3,0,0,0,0,0,1,11,5,1,1,5,2,3,1,2,1, , , ,1,1, , , ,4, ,1, , , ,1, , , ,1, , , ,1,1,1,0,0,0,0,1,0,0,0,0,0,2,2,2,1,1,1,1,1,1,1,4,2,4,1,3,3,3,1,1,1,5,1,3,1,1, ,0,1,0,0,0,0,0,0,4,2,1,1,1,1,1,1, ,8,1,2, ,1, , , ,1,0, , , , 
545,1,3,1,1,1,1, ,1, , , , , , ,2,4,5,3,5,1,4,3,3,2,2,0,1,0,0,0,0,9,3,1,2,3,2,3,1,2,1, , , , , , , , ,6, , ,1, ,1, , , , , , , , ,2,3,1,3,3,3,0,3,1,3,2,3,3,2,3,3,3,3,3,2,2,2,4,2,4,4,1,3,3,4,3,5,3,4,3,3,2,1, ,1,0,0,1,1,0,0,0,4,4,3,4,5,5,5,1, ,8,2,1,I don't have pull outs anymore instead I just get more help in class,1,1, , ,1,0, , , , 
547,1,4,1,1, , , , , , , , , , ,4,4,3,2,5,4,1,1,3,2,3,0,1,0,0,0,0,10,4,1,2,4,1,1,2,3, , , , , , , ,1, ,8, , , , ,1, , , , , , , , ,2,2,2,0,0,0,0,3,0,3,2,2,2,4,4,1,1,1,1,1,1,1,1,1,1,4,1,1,4,4,2,1,1,1,1,1,3,1, ,1,0,0,0,0,0,0,1,3,3,3,3,3,3,2,1, ,8,2,1, ,2, , , ,1,0, , , , 
549,1,3,1,1,1, , , ,1, , , , , ,5,5,4,3,4,3,3,1,3,2,2,0,0,0,0,0,1,12,3,3,2,4,1,5,5,2,1, , , , ,1, , , ,8, ,1,1, ,1, , , ,1, , , , ,1,3,1,0,0,0,0,3,0,1,0,0,0,3,1,2,2,2,2,1,1,1,1,4,4,4,1,3,5,5,5,2,4,3,4,4,2,1, ,1,0,0,1,0,0,0,0,4,4,4,3,4,4,5,2, ,8,1,2, ,1, , , , ,0, , ,1,Italian\American
550,1,4,3,1,1, , ,1,1, , , , , ,4,5,5,5,5,2,2,1,2,2,2,1,0,0,0,0,0,9,5,1,2,5,5,1,2,2, , , ,1, , , , , ,1, , , , , , , , , , , , , ,2,3,1,0,0,0,1,2,0,0,1,0,0,3,2,1,1,1,1,1,1,1,1,4,4,4,1,3,3,3,4,1,1,4,1,4,1,4, ,1,1,0,0,0,0,0,0,1,1,1,1,1,1,6,1, ,8,4,2, ,2, , , , ,0,1, , , 
552,1,2,6,1,1, , , , ,1, , , , ,4,4,2,3,4,3,4,3,2,3,2,1,0,0,1,1,0,12,4,1,3,1,1,1,3,3, , ,1, ,1,1, , , ,7, , , , , ,1,1,1,1,1, , , ,1,1,2,2,2,0,1,2,2,2,1,1,1,3,3,3,3,3,3,1,1,1,4,2,3,5,3,3,2,3,3,3,2,3,3,3,4,2, ,1,0,0,1,0,1,1,0,4,4,4,3,3,4,6,2, ,9,5,2, ,2,1, , , ,0, , , , 
553,1,5,1,1,1, ,1, , ,1, , , , ,4,5,5,5,5,3,1,1,3,3,3,0,0,0,0,0,1,10,4,1,2,5,1,1,1,5, , , , , , , ,1, ,8, ,1, , ,1, , ,1,1,1, , , ,2,2,1,0,0,0,0,3,0,0,0,0,0,1,1,1,2, ,3,2,2,1,1,5,3,4,3,4,2,2,2,5,5,1,1,1,1,1, ,0,0,0,0,0,0,0,1,4,3,3,4,3,3,3,1, ,8,4,2, ,2, , , , ,0, , ,1,indian
554,1,2,1,1,1, , ,1,1,1, , , , ,4,4,4,2,2,1,5,4,2,3,3,0,1,0,0,0,0,9,2,1,2,3,1,4,2,3,1, ,1, ,1,1, , , ,8, ,1,1, ,1, , , , , , , , , , , ,1,2,1,2,2,0,2,2,2,0,4,4,4,4,2,1,2,2,2,3,2,1,5,1,3,3,5,3,1,1,2,3,2,3,2, ,1,0,0,0,0,0,0,0,3,1,1,1,4,5,6,2, ,8,1,2, ,1, ,1, , ,0, , , , 
555,1,4,6,1,1, , , , , , , , , ,3,2,3,2,3,1,1,1,3,2,3,1,0,0,0,0,0,11,3,1,4,4,3,3,3,3,1, ,1, , ,1, , , ,4, ,1,1,1,1,1,1, ,1,1, , , ,1,1,1,2,1,2,1,1,0,2,3,3,1,3,3,3,3,3,3,3,3,2,4,4,4,5,4,4,3,3,3,1,3,1,4,2,5,1, ,1,0,0,0,0,0,0,0,4,4,4,4,5,4,4,2, ,8,2,2, ,1, , , , ,0, , ,1,Indian
556,1,3,1,1,1,1, ,1,1,1, , , , ,5,4,3,4,5,3,2,1,3,3,3,0,0,0,0,0,1,11,4,1,2,3,2,3,4,2,1, ,1, , , , , , ,8, ,1,1, ,1,1, , ,1, , , , ,2,3,1,0,0,0,0,3,0,0,0,0,0,1,1,2,1,1,1,1,1,1,4,4,4,2,1,3,4,4,3,2,2,4,3,1,2,1, ,1,0,0,0,0,1,0,0,4,2,3,3,2,4,5,1, ,10,1,2, ,2, , , ,1,0, , , , 
559,1,4,1, ,1,1, , , , , , ,1,step mom,6,5,4,4,5,2,2,1,3,3,2,0,0,0,0,0,1,12,4,1,1,4,3,3,2,2,1, , , , , , , , ,8, ,1,1, , , , , , , , , , , , , ,0,0,0,0,2,0,1,1,0,0,3,3,3,2,2,2,1,2,1,3,4,4,4,1,3,2,2,3,1,3,3,2,3,2,1, ,0,0,0,0,0,0,0,1,4,2,1,3,3,4,4,2, ,10,1,2, ,2, , , ,1,0, , , , 
562,1,2,1,1,1, , ,1, , , , , , ,5,3,4,3,5,1,1,2,2,2,2,0,0,0,0,0,1,11,4,1,3,5,4, ,2,1,1, , , , , , , , ,8, ,1,1, ,1,1,1, , , , , , ,3,3,2,3,3,2,2,2,1,3,0,1,2,3,1,2,4,3,2,2,1,1,3,4,4,3,1,3,4,3,4,4,4,3,4,2,5,1, ,1,0,0,1,0,0,0,0,4,1,4,4,3,5,1,2, ,9,2,2, ,1, , , ,1,0, , , , 
571,1,3,1,1,1, , ,1, , , , , , ,4,5,5,4,4,3,2,1,3,3,2,0,0,0,0,0,1,10,3,2,3,3,1,3,2,2,1, ,1, , , , , , ,8, , , , ,1, , , , , , , , ,1,2,2,0,0,0,0,1,0,1,0,0,0,3,3,3,2,3,2,2,1,1,3,3,4,1,1,4,4,4,4,2,3,3,1,3,1,1, ,0,1,0,0,0,0,0,0,4,2,2,4,2,2,2,1, ,9,2,2, ,2, , , ,1,0, , , , 
575,1,3,1,1,1, , , ,1, , , , , ,4,4,5,4,5,2,2,1,3,3,3,0,0,0,1,0,0,12,4,1,3,1,1,1,2,3,1, ,1, , ,1, , , ,5, , ,1, ,1, , , ,1, , , , ,2,2,1,0,0,0,0,0,1,0,0,1,0,3,1,1,3,1,1,1,1,1,1,4,4,4,1,3,4,4,4,3,4,3,2,4,2,1, ,1,0,0,0,0,0,0,0,5,2,2,2,1,2,4,1, ,9,1,2, ,1, , , ,1,0, , , , 
577,1,4,1,1,1, , , ,1, , , , , ,5,2,5,3,4,1,1,1,3,3,3,0,0,0,0,0,1,11,3,1,3,2,1,1,4,2,1, ,1, , ,1, , , ,8, ,1,1, ,1, , , , , , , , ,2,1,1,0,0,0,0,0,0,0,0,1,0,4,3,3,1,1,1,1,2,1,2,4,4,5,1,5,5,5,4,1,1,4,1,3,4,1, ,1,1,0,0,0,1,0,0,1,1,1,1,1,1,5,1, ,8,1,2, ,1, , , ,1,0, , , , 
578,1,2,1,1,1, ,1, , , , , , , ,5,4,3,2,5,1,1,1,3,2,1,0,0,0,0,0,1,12,5,1,3,5,5,5,1,3,1, , , , , , , , ,8, , , , ,1, , , , , , , , , , , ,0,0,0,0,3,0,0,1,0,0,4,1,4,4,4,4,2,2,2,5,5,5,5,5,5,5,5,5,5,5,3,3,3,3,1, ,0,0,0,0,0,0,0,1,3,3,3,3,3,3,1,2, ,9,1,2, ,1, , , ,1,0, , , , 
579,1,2,1,1,1, , , ,1, , , , , ,4,3,4,3,5,2,3,3,3,3,3,0,1,0,0,0,0,12,3,1,3,4,2,3,4,2, , , , , , , ,1, ,8, ,1, , ,1,1, , ,1,1, , , ,2,4,1,3,2,2,2,2,0,2,2,2,3,3,2,2,3,4,2,2,2,2,4,2,2,4,2,4,3,3,2,2,1,2,3,3,3,1, ,1,1,0,1,0,0,0,0,5,5,4,2,5,4,3,2, ,9,2,2, ,2, , , ,1,0, , , , 
580,1,3,6,1,1, , , , ,1, , , , ,4,4,4,4,5,1,1,1,3,3,3,0,0,0,0,0,1,11,4,1,1,5,1,1,2,1,1, ,1, , , , , , ,8, , ,1, ,1, , , , , , , , , , , ,0,0,0,1,2,0,0,1,0,0,3,3,4,1,1,1,1,1,1,3,2,4,4,1,4,2,1,2,1,4,3,3,3,3,1, ,1,0,0,0,0,0,0,0,3,1,1,1,1,2,6,2, ,10,1,2, ,1,1, , , ,0, , , , 
581,1,3,1,1,1,1, , , , , , , , ,4,5,3,3,4,3,2,1,2,2,2,0,0,0,0,1,0,12,5,1,3,3,1,2,4,4, , ,1, , , , , , ,8, , , , , , , , , , , ,1, ,2,2,2,0,0,0,1,1,0,1,1,1,1,3,2,2,3,3,2,1,1,1,2,3,4,4,2,4,2,4,3,2,2,3,3,3,3,1, ,1,1,0,0,0,0,0,0,4,3,3,3,2,2,6,1, ,10,2,2, ,1, , , , ,0, , ,1, 
582,1,4,1,1,1, , , , , , ,1, , ,4,5,5,5,5,3,3,1,3,3,3,0,0,0,0,0,1,12,4,5,2,5,3,5,1,1,1, ,1, , ,1, , , ,8, ,1,1, ,1, , , ,1, , , , ,1,5,1,0,0,0,1,2,0,0,0,0,0,3,3,3,1,1,1,1,1,1,1,4,4,4,1,4,1,3,1,1,1,4,1,4,1,1, ,0,1,0,0,0,1,0,0,5,4,4,4,1,1,5,3,Banana,8,1,2, ,2, , , , ,0, , ,1,irish
584,1,2,1,1,1,1, , , , , , , , ,2,3,4,1,2,1,1,2,2,2,2,0,1,0,1,1,0,8,2,1,2,5,1,1,5,2,1, ,1, , , , , , ,8, , ,1,1,1,1, , ,1,1, , , ,1,2,2,1,3,2,2,1,1,2,2,2,1,4,4,4,4,4,4,2,3,2,3,2,4,1,1,1,1,1,1,1,3,2,4,2,5,4, ,0,1,0,0,0,1,0,0,5,5,3,5,5,5,5,2, ,8,3,2, ,1, , , ,1,0, , , , 
585,1,3,1,1,1, , ,1, , , , , , ,4,4,5,3,5,2,4,3,3,3,3,0,0,0,0,0,1,10,1,1,2,4,2,3,4,1,1, , , , , , , , ,8, ,1, , ,1,1, , ,1, , , , ,2,1,1,0,1,0,0,3,1,1,2,0,0,3,3,3,2,1,1,2,2,2,4,3,4,2,1,4,1,1,2,1,2,2,1,2,3,1, ,0,1,0,1,0,0,1,0,4,2,3,4,3,2,3,2, ,10,2,2, ,2, , , ,1,0, , , , 
587,1,2,6,1,1, ,1, , , , , , , ,5,3,2,1,3,3,3,4,2,3,3,0,0,0,0,0,1,10,4,2,2,4,1,4,2,1, , ,1, ,1,1, , , ,6, ,1, , ,1,1, , ,1, , , , , , , ,3,3,3,3,3,2,0,2,3,2,2,3,2,3,2,1,3,2,3,4,1,4,4,1,4,1,1,3,1,1,3,2,2,4,1, ,0,1,0,0,1,1,0,0,5,5,4,2,4,3,6,2, ,8,2,2, ,1,1, , , ,0, , , , 
588,1,5,6,1,1, , , , , , , , , ,4,5,4,4,5,4,4,2,3,2,2,0,0,0,0,0,1,10,5,1,2,5,2,5,5,5, , , , , , , ,1, ,8, ,1, , , , , , , , , , , ,1,1,1,1,1,0,2,0,1,3,0,0,0,3,2,2,1,1,1,1,1,1,4,4,4,5,1,4,4,3,3,1,3,5,1,4,1,1, ,1,0,0,1,0,0,0,0,4,3,5,5,2,5,1,1, ,10,2, , ,2,1, , , ,0, , , , 
589,1,3,4,1, , , ,1,1, , , , , ,2,4,1,3,4,4,2,1,3,2,2,0,1,0,0,0,0,8,4,1,2,2,1,2,5,5, , ,1, , , , ,1, ,8, , ,1, , , , , , , , , , , , , , , , , , , , , , , , , , , , , , , , , , , , , , , , , , , , , , , , , ,1,0,0,0,0,0,0,0, , , , , , , ,1, ,10,5,1, ,2, ,1, , ,0, , , , 
592,1,4,1,1, , ,1, , , , , , , ,4,4,4,3,4,4,4,3,3,2,2,0,0,0,0,1,0,11,1,1,2,2,2,3,3,2, , , , , , , ,1, ,8, ,1, , , , , , , , , , , ,2,2,3,0,1,2,1,2,1,0,2,3,1,4,4,3,1,1,1,3,2,3,4,2,1,3,1,4,2,2,4,2,1,1,3,1,4,4, ,1,0,0,0,0,0,0,0,4,3,4,4,4,3,5,2, ,8,2, , ,1, ,1, , ,0, , , , 
594,1,3,1,1,1,1, , , , ,1, , , ,4,4,3,2,4,2,2,3,2,2,1,0,1,0,0,1,0,11,3,1,1,3,1,1,4,2, , , , , , , ,1, ,8, ,1, , , , ,1, , , , , , ,3,3,1,2,2,2,2,3,2,2,1,2,2,2,3,3,1,1,1,2,2,2,2,1,4,1,2,3,2,2,3,2,1,2,4,2,4,1, ,1,0,0,1,0,0,0,0,5,5,5,5,5,5,2,2, ,10,2,2, ,1, , , ,1,0, , , , 
597,1,4,6,1,1, , ,1, , , , , , ,4,5,5,5,5,1,1,1,3,3,3,0,0,0,0,0,1,14,5,5,1,5,5,5,1,1,1, ,1, ,1,1, , , ,4, , ,1, ,1, , , , , , , , , , , ,0,0,0,3,0,0,1,0,0,0,3,4,4,1,1,1,1,1,1,1,4,4,5,1,4,4,1,4,1,3,5,1,4,1,1, ,0,0,0,0,0,0,1,0,4,2,4,3,3,4,2,2, ,10,1,2, ,2,1, , , ,0, , , , 
598,1,2,6,1, ,1, , , ,1,1, , , ,6,3,3,2,5,3,3,1,2,2,2,0,1,0,1,0,0,10,2,1,2,2,2,2,5,1, , , , , , , ,1, ,8, ,1, , ,1,1, , ,1,1, , , ,2,1,2,1,3,3,3,1,2,2,1,2,3,3,4,2,1,1,1,2,2,3,3,2,4,5,5,2,1,3,4,2,5,3,1,2,5,5,demisexual,1,0,0,1,1,0,0,0,4,5,3,3,5,5,5,2, ,9,1,2, ,2,1, , ,1,1,1, , , 
599,1,3,1,1,1, , ,1, , , , , , ,2,4,4,3,5,3,3,3,2,2,2,0,0,0,1,0,0,11,5,2,3,3,1,3,2,1,1, ,1,1,1,1, , , ,2, ,1, , , , , , ,1, , , , ,3,4,2,0,0,0, ,1,0,0,0,0,0,3,3,3,1,1,1,2,1,1,5,1,2,3,5,1,2,1,2,5,4,3,1,1,3,4, ,1,0,0,0,0,0,0,0,2,3,2,3,2,4,6,1, ,8,2,1, ,1, , , ,1,0, , , , 
600,1,3,1,1, ,1, , , , , , , , ,4,3,2,2,3,4,5,5,3,3,3,0,1,1,1,0,0,11,4,2,2,1,1,1,3,5, , ,1, , , ,1, ,During Therapy and other appointments,8, , , , ,1, , , ,1, , , , ,1,1,1,0,3,3,2,3,2,1,2,2,3,4,2,3,3,1,1,3,2,3,3,1,4,4,1,3,2,4,1,1,5,1,4,2,5,2, ,0,1,0,1,0,0,0,0,4,1,2,4,1,1,1,1, ,8,2,2, ,2, ,1, ,1,0, , , , 
601,1,2,1,1, , , , , , , , , , ,6,5,5,3,5,1,1,1,3,3,3,1,0,0,0,0,0,8,5,1,1,3,1,1,1,5, , , , , , , ,1, ,8,1, , , , , , , , , , , , , , , , , , , , , , , , , , , , , , , , , , , , , , , , , , , , , , , , , , , ,999,999,999,999,999,999,999,999, , , , , , , ,1, ,10,4,2, ,2, , , ,1,0, , , , 
602,1,3,1,1,1,1,1, , , , , , , ,2,5,3,4,5,2,2,1,3,3,3,0,0,0,0,0,1,11,1,1,1,5,1,1,3,3, , , , , , , ,1, ,8, ,1,1, ,1, , , , , , , , ,1,1,1,0,0,0,0,0,0,0,0,0,0,1,1,1,1,1,1,1,1,1,3,3,4,4,1,4,4,4,4,1,1,5,1,5,1,1, ,0,0,0,1,0,0,0,0,5,1,2,3,2,4,5,1, ,10,2,1,speech,2, , , ,1,0, , , , 
603,1,3,1,1,1, ,1, , , , , , , ,4,5,5,4,5,2,2,1,2,3,3,0,0,0,0,0,1,13,4,1,2,3,2,1,3,4, , , , , , , ,1, ,8, , , , , ,1, , , , , , , ,2,2,2,0,1,0,2,2,1,1,1,0,0,2,2,3,1,1,1,2,1,2,3,2,3,2,1,3,3,3,2,1,2,4,2,3,3,1, ,1,1,0,1,0,1,0,0,4,3,4,2,3,3,6,1, ,10,2,2, ,2, , , ,1,0, , , , 
607,1,3,6,1,1,1, , , ,1,1, , , ,6,5,4,2,4,3,3,5,2,3,3,1,0,0,0,0,0,0,4,3,3,4,2,2,3,4, , ,1, ,1, , , , ,8, , , , , , , , , , , ,1,mostly my friends and myself, , , ,0,0,0,0,0,0,0,3,0,0,3,3,3,1,1,1,2,2,2,4,4,4,4,1,1,1,5,1,1,1,4,2,3,2,1, ,0,0,0,0,0,0,0,1,4,3,3,3,3,3,1,1, ,8,4,2, ,2, ,1, , ,0, , , , 
608,1,3,1,1,1, , , ,1, , , , , ,5,5,4,5,5,2,2,3,3,3,3,0,1,0,0,0,0,11,4,2,2,5,3,3,4,3, , , , , , , ,1, ,8, ,1, , ,1, , , , , , , , , , , ,1,2,0,0,0,0,2,0,1,2,2,1,3,1,2,2,1,1,1,4,4,5,4,1,5,4,3,4,2,2,3,4,3,4,1, ,1,1,0,0,0,0,0,0,5,2,4,3,3,4,3,2, ,10,1,2, ,1, , , ,1,0, , , , 
609,1,4,1,1,1,1, , , , , , , , ,5,5,5,5,5,2,2,1,2,3,3,0,0,0,0,0,1,10,5,1,2,3,2,2,4,4,1, , , , , , , , ,8,1, , , , , , , , , , , , , , , ,1,2,0,1,1,0,2,1,0,0,3,3,2,3,3,2,1,2,2,3,4,4,4,1,2,1,1,1,1,1,3,2,3,3,1, ,1,0,1,0,0,1,0,0,4,4,4,4,3,3,2,2, ,9,2,2, ,2, , , ,1,0, , , , 
610,1,3,1,1,1, , ,1,1, , , , , ,4,5,5,5,5,1,1,1,2,2,3,1,1,0,0,0,0,11,2,1,3,3,2,1,1,1,1, , , , , , , , ,8, ,1,1, ,1, , , , , , , , ,1,1,1,0,0,0,0,3,0,0,2,1, ,2,2,1,1,1,1,1,1,2,3,3,3,4,1,4,4,1,4,1,1,3,3,3,2,1, ,0,1,0,0,0,0,0,0,2,2,2,2,2,4,2,2, ,8,1,2, ,1, , , ,1,0, , , , 
611,1,5,1,1,1, ,1, , , , , , , ,2,4,4,4,5,5,5,1,3,2,2,0,0,0,0,0,1,12,5,1,1,4,2,5,4,3, , , , , , , ,1, ,8, , ,1, ,1, , , ,1,1, , , ,3,4,3,1,3,2,1,0,0,2,0,1,2,3,4,4,3,2,3,1,1,1,4,3,3,4,2,4,1,4,3,4,3,4,4,4,4,2, ,1,1,0,0,0,0,0,0,5,2,2,4,2,4,2,2, ,10,1,2, ,1, , , ,1,0, , , , 
612,1,2,1,1,1, ,1, , , , , , , ,4,3,3,2,3,4,2,1,2,2,2,0,0,0,0,0,1,12,4,1,3,3,1,3,4,3, , , , , , , ,1, ,8,1, , , ,1,1, , , , , , , ,2,1,2,2,3,0,1,2,1,2,1,0,1,3,3,3,1,1,1,2,2,2,3,1,3,3,2,3,1,3,3,1,3,3,3,3,3,5, ,1,0,0,0,0,0,0,0,3,3,3,4,2,4,6,3, ,10,1,2, ,1,1, , , ,0, , , , 
614,1,2,1,1,1, ,1, , , , , , , ,6,4,2,3,5,4,4,3,2,2,2,0,0,0,0,1,1,12,4,1,2,3,1,2,4,1, , , , , , , ,1, ,8, , , , ,1,1,1, ,1,1, , , ,2,3,2,1,3,2,2,2,2,2,2,2,3,3,3,1,3,3,2,2,3,2,2,1,3,4,1,3,3,3,3,3,3,2,3,2,4,1, ,0,0,0,1,0,0,0,0,5,5,3,4,4,4,6,2, ,8,1,2, ,1,1, , , ,0, , , , 
615,1,3,1,1,1,1, , , , , , , , ,4,4,4,3,5,2,3,5,1,3,3,0,0,0,0,0,1,11,2,1,1,3,1,1,4,2,1, , , , , , , , ,8, , , , ,1, , , , , , , , ,2,1,1,0,0,0,0,0,0,1,0,1,0,3,3,3,2,2,1,1,2,1,3,2,4,3,1,3,1,1,4,1,1,3,3,3,3,1, ,1,1,0,1,1,1,0,0,5,3,2,3,1,3,6,2, ,10,1,2, ,2, , , ,1,1,1, , , 
616,1,5,1,1,1,1, , , , , , , , ,2,5,4,4,5,1,1,1,3,2,3,0,0,1,0,0,0,8,4,4,2,5,5,5,2,3, , ,1, , , , , , ,8, ,1,1,1,1,1, , ,1, , , , ,4,4,1,2,2,1,2,2,2,3,3,3,3,4,4,4,4,4,4,2,1,3,4,4,4,4,1,4,3,3,4,3,3,1,5,1,5,1, ,1,1,0,0,0,0,1,0,5,5,5,5,5,5,2,2, ,8,2,2, ,1, , , ,1,1,1, , , 
619,1,3,1,1,1, , ,1, , , , , , ,4,5,4,4,5,1,1,1,3,3,3,0,0,0,0,0,1,10,5,1,2,5,2,2,1,2,1, ,1, ,1,1, , , ,8, ,1,1, ,1, , , , , , , , ,2,4,1,0,3,0,2,0,1,2,0,0,1,1,1,1,1,1,1,1,2,1,1,4,4,4,1,3,4,3,4,2,1,3,2,3,4,1, ,0,0,0,0,0,0,0,1,4,2,1,3,3,4,2,2, ,8,1,2, ,1, , , ,1,0, ,1, , 
620,1,1,6,1, , , , ,1, ,1,1, , ,3,3,2,2,4,3,3,2,2,2,2,1,0,0,0,0,0,9,3,2,4,4,1,3,3,3, , ,1, ,1, ,1, ,most of the day during weekdays,3, ,1, , , ,1, , , , , , , ,2,3,2,3,3,3,2,1,0,2,2,2,3,3,3,3,2,2,2,2,1,3,3,3,4,3,1,3,2,4,2,2,2,1,5,1,5,2, ,1,1,0,1,0,0,0,0,4,2,2,3,3,5,4,2, ,9,2,2, ,2, , , ,1,0, , , , 
621,1,3,6,1,1,1, , , , , , , , ,2,5,5,5,5,3,1,1,2,1,1,0,0,0,0,0,1,13,3,1,1,5,1,2,3,2, , , , , , , ,1, ,8, , , , ,1, , , , , , , , , , , , , , , , , , , , , , , , , ,3, , , , , , , , , , , , , , , , , , , , , ,999,999,999,999,999,999,999,999, , , , , , , ,1, ,10,6,2, ,2, ,1, ,1,0, , , , 
622,1,2,1,1,1, , , , , , , , , ,5,4,2,3,5,2,2,1,3,3,3,0,0,0,0,0,1,10,4,2,3,2,1,2,3,3,1, ,1, , , , , , ,8, ,1, , , ,1, , , , , , , ,1,1,1,0,1,0,0,2,1,1,1,0,0,4,4,4,3,3,3,1,1,1,3,3,4,3,1,3,4,2,2,1,4,4,2,3,2,4, ,0,1,0,0,0,0,0,0,2,4,3,2,2,3,4,2, ,10,1,2, ,2, , , ,1,0, , , , 
623,1,3,1,1, , , , , , , , , , ,2,5,1,2,1,3,1,1,3,3,2,0,1,0,0,0,0,14,3,4,3,3,2,2,1,2, , , , , ,1, , , ,8, ,1, , , , , , , , , , , ,1,3,1,2,1,0,2,1,1,1,2,0,1,3,3,3,3,3,3,2,3,2,4,3,3,5,3,3,3,3,3,3,3,2,3,1,2,4, ,1,0,0,1,0,0,0,0,4,3,3,4,2,3,5,2, ,10,1,1,Have trouble understanding work sometimes,2, , , ,1,0, , , , 
625,1,2,1,1,1, ,1, ,1, , , , , ,1,3,5,1,3,2,1,2,3,3,2,0,0,0,0,0,1,10,2,1,2,1,1,3,5,5,1, , , , , , , , ,8, , , , ,1, , , , , , , , ,1,3,1,3,3,3,3,0,1,1,2,3,3,2,2,2,2,2,2,3,3,3,4,2,3,2,2,2,1,1,1,2,1,3,1,4,2,2, ,0,0,1,0,0,0,0,0,5,2,5,5,5,3,6,2, ,10,5,2, ,1, ,1, , ,0, , , , 
626,1,5,1,1,1, , , ,1, , , , , ,5,5,5,4,5,1,1,1,3,3,3,0,0,0,0,0,1,11,4,5,4,4,1,3,3,5,1, ,1, ,1, , , , ,8, ,1, , ,1, , , , , , , , ,3,3,2,0,1,0,3,1,0,0,0,0,3,3,2,3,3,3,2,1,1,1,1,2,4,5,5,4,4,4,4,1,1,3,3,3,4,1, ,1,0,0,0,0,0,0,1,5,2,2,2,2,3,1,1, ,9,1,2, ,2, , , ,1,0, , , , 
628,1,3,1,1,1, , , ,1, , , , , ,4,5,5,5,5,1,1,1,3,3,3,0,0,0,0,0,1,13,5,3,3,4,4,4,2,2,1, ,1, ,1,1, , , ,3, ,1, , , , , , , , , , , ,3,3,1,0,0,0,0,0,0,0,0,0,0,2,3,2,3,2,3,1,1,1,1,5,5,5,1,5,5,5,5,1,1,5,1,5,1,1, ,1,0,0,0,0,0,0,0,2,2,2,2,2,2,2,1, ,9,2,2, ,2, , , ,1,0, , , , 
629,1,4,1,1,1,1,1, , , , , , , ,5,4,3,3,3,2,3,2,2,2,2,0,1,0,0,0,0,10,4,1,2,3,2,1,2,2, ,1,1, ,1, , , , ,5, , ,1, , , , , , , , , , ,1,2,1,0,0,0,0,3,0,1,0,0,1,2,3,3,3,2,2,1,1,1,4,3,3,4,1,4,4,4,4,2,3,3,3,3,3,1, ,0,0,0,1,0,0,0,0,3,3,3,3,3,3,1,1, ,8,1,2, ,2, , , ,1,0, , , , 
631,1,3,1,1,1, ,1, ,1, , , , , ,4,4,4,2,5,1,2,2,3,2,2,0,1,0,0,0,0,13,4,1,1,1,4,1,1,3,1, , , ,1, , , , ,8, , ,1, ,1, , , ,1, , , , ,1,1,1,0,0,0,2,2,2,0,1,1,1,2,2,2,1,1,1,2,1,1,4,1,1,1,2,3,2,4,3,1,1,4,1,1,2,1, ,1,0,0,0,0,0,0,0,1,1,4,1,4,1,5,3,M1 A1 Abrams / Male,10,4,2, ,2, , , ,1,0, , , , 
632,1,3,1,1,1,1, ,1, , , , , , ,5,4,4,4,5,2,2,1,2,2,2,0,1,0,0,0,0,10,3,1,1,2,1,1,3,2, , , , , , , ,1, ,8,1, , , , , , , , , , , , ,1,4,2,0,1,0,0,1,0,0,0,0,0,3,2,3,2,1,2,1,1,1,3,1,3,5,1,3,4,4,2,5,1,4,2,5,4,1, ,1,0,0,1,0,0,0,0,5,5,5,3,4,5,6,1, ,9,2,2, ,1, , , ,1,0, , , , 
633,1,2,1,1,1,1, ,1, , , , , , ,4,3,4,2,4,2,2,2,2,2,2,0,1,0,0,0,0,11,4,4,5,4,3,2,2,2,1,1,1, , ,1, , , ,4, ,1, , , ,1,1, , , , , , ,1,3,4,0,0,0,0,3,0,0,3,0,0,1,1,1,1,2,1,1,1,1,2,1,4,4,2,5,4,4,2,2,2,4,2,4,2,1, ,0,1,0,1,1,1,0,0,4,3,3,3,1,1,6,1, ,8,2,2, ,1, , , ,1,0, , , , 
634,1,4,1,1,1,1, , , , , , , , ,6,5,2,3,5,1,1,1,3,2,2,0,0,0,1,0,0,11,3,1,2,3,1,2,3,1, , , , , ,1, , , ,7, , , , ,1, , , , , , , , , , , , , , , , , , , , , , , , , , , , , , , , , , , , , , , , , , , , , , , ,999,999,999,999,999,999,999,999, , , , , , , ,1, ,8,2,1,academic support,1, , , , ,0, , ,1,"american,Canadian,Italian and Irish"
636,1,3,1,1,1,1, , , , , , , , ,5,4,5,3,4,2,2,2,3,3,3,0,0,0,0,0,1,13,4,1,2,3,1,3,1,1,1, ,1, , ,1, , , ,8, ,1,1,1, ,1,1, , , , , , ,3,3,2,0,1,0,0,2,0,2,1,0,0,3,4,3,1,1,1,1,1,1,3,3,2,3,1,1,2,3,3,1,1,3,2,2,3,4, ,1,1,0,0,0,0,0,0,1,2,1,3,3,3,6,1, ,8,1,1,I have a speech IEP that I go to once a week. I do not have academic support.,2,1, , ,1,0, , , , 
640,1,3,1,1,1,1, , ,1, , , , , ,4,4,4,3,5,3,3,2,3,3,3,0,1,0,0,0,0,13,4,2,2,5,1,3,3,1, , , , , , , ,1, ,8, ,1,1, ,1, , , , , , , , ,1,2,1,1,2,1,0,2,2,1,2,2,0,4,4,4,3,3,3,2,3,2,4,3,4,3,1,4,4,1,3,2,3,2,4,2,4,1, ,1,1,0,1,0,0,0,0,5,5,5,4,5,5,4,2, ,9,1,2, ,1, , , ,1,0, , , , 
643,1,5,2,1,1,1, , , , , , , , ,1,5,5,5,5,5,5,5,2,2,2,0,0,0,0,0,1,9,5,5,1,1,5,5,5,5,1, , , , ,1, , , ,8,1, , , , , , , , , , , , ,5, ,1,0,0,0,0,3,0,0,3,0,0,1,1,1,1,1,1,1,1,1,1,1,1,1,1,1,1,1,1,1,1,5,1,1,1, , ,0,0,0,0,0,0,0,1,1,1,1,1,1,1,6,1, ,9,3,2, ,1, , , , ,1,1, , , 
647,1,4,1,1,1, , , ,1, , , , , ,5,4,3,3,4,3,3,3,2,2,2,0,1,0,0,0,0,9,3,1,1,4,1,2,3,2, , , , , , , ,1, ,8, , , , ,1, , , , , , , , ,1,1,1,0,1,0,1,2,1,1,0,1,1,2,2,3,3,3,3,1,2,2,2,4,4,4,3,3,3,2,3,1,1,4,4,1,5,1, ,1,1,0,0,0,0,0,0,4,4,4,4,3,4,1,2, ,10,2,2, ,2, , , ,1,0, , , , 
648,1, , , , , , , , , , , , , , , , , , , , , , , , ,999,999,999,999,999,999,0, , , , , , , , , , , , , , , , , , , , , , , , , , , , , , , , , , , , , , , , , , , , , , , , , , , , , , , , , , , , , , , , , , , , , , ,999,999,999,999,999,999,999,999, , , , , , , ,2, ,9,1,2, ,2,1, , , , , , , , 
649,1,3,1,1,1,1, , , , , , , , ,4,4,5,4,5,2,2,1,3,3,2,0,0,0,0,0,1,10,4,1,2,3,1,3,2,2,1, ,1, , , , , , ,8, ,1,1, ,1, , , , , , , , , , , ,0,0,0,0,1,0,0,0,0,0,1,1,1,1,1,1,1,1,1,1,4,4,5,1,4,4,4,4,1,1,4,1,3,1,1, ,0,0,0,0,0,0,0,1,3,3,3,5,1,3,5,1, ,8,2,2, ,1, , , ,1,1,1, , , 
651,1,2,1, ,1, , ,1, , , , , , ,5,5,4,4,4,3,3,3,3,2,2,0,0,0,0,0,1,9,3,2,3,3,1,3,5,1, , , , , , , ,1, ,8, ,1, , , ,1, , ,1,1, , , ,2,2,2,1,3,2,2,0,3,2,2,2,2,3,3,3,2,2,2,3,3,3,4,3,2,4,1,1,1,2,4,4,3,3,4,4,4,4, ,0,1,0,0,0,0,0,0,5,5,5,5,5,5,3,2, ,8,2,2, ,1, , , ,1,0, , , , 
654,1,5,1,1,1, , , , , , , ,1,dog,3,5,5,5,5,5,5,1,2,2,2,0,1,0,0,0,0,10,1,1,3,4,4,4,4,3, , , , , , , ,1, ,8, , , , ,1, , , , , , ,1, , , , , , , , , , , , , , , , , , , , , , , , , , , , , , , , , , , , , , , , ,999,999,999,999,999,999,999,999, , , , , , , ,1, ,8,4,2, ,2, ,1, , ,0, , , , 
659,1,3,1,1,1,1, , , , , , ,1,dogs,6,5,5,5,5,2,2,3,2,3,2,0,0,0,0,0,1,10,5,1,4,5,3,5,1,2,1, ,1, , ,1, , , ,4, , , , ,1, , , , , , , , ,1,1,1,0,0,0,2,1,0,0,0,0,0,1,1,1,1, ,1,2,1,1,1,4,4,4,1,4,1,5,5,1,3,5,1,5,1,4, ,0,0,0,0,0,0,0,1,3,4,4,1,1,1, ,1, ,8,2,2, ,2, , , , ,1,1, , , 
661,1,3,1,1,1,1, , , , , , , , ,4,4,4,3,5,1,1,1,3,3,3,0,0,0,0,0,1,11,5,1,1,4,1,1,1,2,1, , , , , , , , ,8, , , , , , , , , , , ,1,common sense,1,1,4,0,0,0,0,3,0,0,3,0,0,2,4,1,1,1,1,1,1,1,3,2,3,5,1,1,3,3,3,1,1,4,1,1,1,1, ,0,0,0,0,0,0,0,1,1,1,1,1,1,1,6,1, ,10,2,2, ,2, , , , ,0, ,1, , 
662,1,3,1, ,1,1, ,1, , ,1, , , ,3,4,2,2,3,5,4,4,3,3,2,0,0,0,0,0,1,9,2,1,2,2,1,1,4,2, , , , , , , ,1, ,8, ,1,1, ,1,1, , ,1,1, , , ,1,1,4,1,2,0,0,3,0,2,1,0,0,4,4,4,3,2,2,2,2,2,2,3,3,3,1,4,4,4,3,4,3,1,5,2,5,1, ,1,0,0,0,1,1,0,0,2,2,2,2,2,2,6,1, ,10,2,2, ,2,1, , ,1,0, , , , 
663,1,2,1,1,1,1, , , , , , , , ,4,4,4,3,5,1,1,1,3,2,2,0,0,0,0,0,1,11,2,1,3,1,1,2,5,2,1, , , , , , , , ,8, , , , ,1, , , , , , , , ,2,3,2,1,2,2,3,3,0,2,2,2,1,4,3,4,4,4,2,2,3,3,3,3,4,3,1,4,5,5,3,1,1,2,3,3,4,1, ,1,1,0,0,0,0,0,0,2,4,4,1,4,3,6,1, ,9,2,2, ,1, , , ,1,0, , , , 
664,1,3,1,1,1, ,1, , , , , , , ,4,4,3,1,4,3,2,1,2,3,2,0,0,0,0,0,1,12,4,1,3,4,1,3,3,2,1, ,1, , , , , , ,8, ,1, , , ,1,1, , , , , , ,1,3,2,0,2,1,1,2,0,1,1,0,0,1,1,1,1,1,1,1,1,1,3,1,4,3,1,2,2,4,3,2,1,2,3,2,5,5,I'm normal,1,1,0,0,1,0,0,0,2,2,2,2,3,4,3,1, ,9,1,2, ,2, , , ,1,0, , , , 
665,1,5,7,1,1,1, ,1, , , , , , ,5,5,5,4,5,1,1,1,3,3,3,0,0,0,0,0,1,0,5,3,2,4,1,3,2,1,1, , , ,1,1, , , ,5, ,1,1, , , , , , , , , , ,3,3,1,0,0,0,0,3,0,0,0,0,0,2,1,1,1,1,1,1,1,1,4,3,4,1,1,4,1,3,4,1,1,4,2,4,2,1, ,1,1,0,0,0,0,0,0,3,3,3,3,2,4,4,2, ,8,1,2, ,2, , , , ,0, ,1, , 
690,1,3,1,1,1, , ,1, , , , , , ,6,4,5,3,5,1,2,1,2,3,3,0,0,0,0,0,1,13,4,2,3,5,3,4,4,3, , , , , ,1, , , ,8, ,1, , ,1,1, , , , , , , , , , , , , , , , , , , , , , , , , , , , , , , , , , , , , , , , , , , , , , ,999,999,999,999,999,999,999,999, , , , , , , ,2, ,8,1,1,I have a 504 plan,1, , , ,1,0, , , , 
743,1,3,1,1,1, , ,1, , , , , , ,4,4,4,4,5,2,2,2,3,3,3,0,1,0,0,0,0,12,4,3,3,4,2,4,3,4,1, , , , , , , , ,8, ,1, , , ,1, ,1, , , , , ,3,4,1,0,1,0,0,2,1,1,1,0,0,2,1,1,2,1,1,1,1,1,3,3,3,4,1,4,4,2,3,1,3,4,2,3,2,1, ,1,1,0,0,0,0,0,0,4,3,3,4,3,4,1,2, ,10,1,2, ,2, , , ,1,0, , , , 
780,1,5,1,1,1, ,1, ,1, , , , , ,4,5,5,5,5,1,1,1,3,3,3,0,0,0,0,0,1,11,4,1,2,5,2,3,2,4,1, , , , , ,1, ,I can't check on it when I am in school unless I am home alone or I need it for school.,8, ,1,1, ,1, , , , , , , , ,3,4,1,0,0,0,0,1,0,0,0,0,0,3,1,1,1,1,1,1,1,1,3,4,4,4,1,3,4,3,3,3,3,5,1,5,2,1, ,1,0,0,0,0,0,0,0,5,1,1,4,1,4,5,2, ,7,1,2, ,1, , , , ,0, ,1, , 
781,1,5,6,1,1, , ,1, , , , , , ,4,5,5,5,5,1,2,3,2,2,3,1,0,0,0,0,0,0,5,4,1,1,5,5,1,2,1, ,1, ,1,1, , , ,3, , , , , , , , , , , ,1,i dont use social media,4,2,1,0,1,0,2,0,0,1,0,1,0,3,4,3,1,1,1,2,1,1,1,4,4,4,1,4,4,3,4,1,3,5,1,5,3,1, ,0,1,0,0,0,0,0,0,5,3,4,5,1,5,1,1, ,7,2,2, ,2,1, , , ,0, , , , 
782,1,2,6,1,1,1, , , , , , , , ,2,4,3,2,3,1,2,3,2,2,3,1,0,0,0,0,0,12,5,1,3,4,3,4,3,2, , ,1, , ,1, , , ,8, , , , ,1, , , , , , , , ,1,5,2,2,0,1,3,2,1,1,1,1,0,1,2,2,4,3,2,2,2,1,4,2,3,2,4,3,5,3,2,3,2,3,1,3,5,1, ,0,0,0,0,0,0,0,1,4,5,5,4,3,5,5,1, ,7,4,1, ,1, , , , , , ,1, , 
787,1,2,1,1,1, ,1, , , , , , , ,4,3,1,3,3,5,4,3,2,2,2,0,0,0,0,0,1,8,1,1,2,3,1,1,5,5, , , , , , , ,1, ,8, , , , , ,1, , , , , , , ,1,1,1,2,2,2,2,3,0,0,1,2,2,3,3,3,1,1,1,1,1,1,4,1,3,4,2,3,1,1,1,1,1,1,5,1,5,2, ,0,0,1,1,0,0,1,0,4,4,4,4,4,4,4,2, ,10,6,2, ,2, ,1, , ,0, , , , 
794,1,3,1,1,1, , , ,1, , , , , ,4,5,3,3,5,2,2,1,3,3,2,0,0,0,0,0,1,9,3,1,2,4,2,3,1,1, , , , , , , ,1, ,8, , ,1, ,1, , , ,1, , , , ,2,3,2,0,1,0,0,2,0,0,0,0,1,4,2,3,3,2,2,1,1,1,2,2,2,1,2,1,1,2,1,2,2,4,3,4,3,1, ,1,0,0,0,0,0,0,0,3,4,3,3,3,3,2,2, ,7,2,2, ,1, ,1, ,1,0, , , , 
795,1,5,2,1,1, , , ,1, , , , , ,5,5,5,4,5,1,1,1,3,3,2,0,0,0,0,0,1,11,5,3,2,5,1,5,5,5,1, , , , ,1, , , ,6, ,1, , , ,1, , , , , , , ,1,5,1,0,0,1,1,1,1,0,0,0,1,1,1,1,1,3,1,1,1,1,4,4,4,4,3,4,4,3,4,4,2,4,2,4,3,1, ,0,1,0,0,0,0,0,0,5,5,5,4,4,4,6,2, ,10,4,2, ,2, , , , ,1,1, , , 
796,1,5,1,1, , , , , ,1, , , , ,2,4,3,2,5,1,4,5,3,2,2,0,0,0,0,0,1,8,2,2,4,5,1,5,1,1, , , , , , , ,1, ,8, ,1, ,1,1, , , ,1,1, , , ,2,2,2,0,1,0,2,0,1,2,0,0,0,4,3,3,1,1,1,1,1,1,1,4,5,2,1,4,1,5,1,1,3,4,1,4,2,1, ,1,0,0,0,0,0,0,0,2,1,2,3,2,2,5,2, ,7,4,2, ,1, , , , ,1, , ,1,black/white/puerto rican
798,1,5,1, , , , , , , , , ,1,Mom Dad and sister,3,4,5,4,5,1,3,2,3,3,2,999,999,999,999,999,999,0,5,5,5,5,1,5,1,3,1,1,1,1,1,1, , , ,3, ,1, , ,1, , , , , , , , ,2,3,1,0,0,0,3,2,1,0,1,1,0,4,3,4,2, ,1,2,2,2,4,3,4,4,1,4,4,4,4,1,1,3,1,1,3,1, ,0,1,0,0,0,0,0,0,1,1,1,1,1,1,5,2, ,7,2,1, ,1, , , ,1,1, , , , 
800,1,5,3,1,1,1,1, , , , , , , ,2,5,3,3,5,3, ,2,2,2,2,0,1,0,1,0,0,9,5,1,1,3,1,2,3,1, , ,1, , , , , , ,8, ,1,1, ,1, , , , , , , , , , , , , , , , , , , , , , , , , , , , , , , , , , , , , , , , , , , , , , , ,999,999,999,999,999,999,999,999, , , , , , , ,2, ,7,2,2, ,2, , , ,1,0,1, , , 
805,1,3,1,1, , , ,1,1, , , , , ,2,4,3,2,5,3,3,1,3,2,1,0,0,0,0,0,1,11,1,1,4,4,1,4,1,1, , ,1, ,1,1, , , ,8,1, , , , , , , , , , , , ,1,1,2,0,0,0,0,2,1,0,1,0,0,4,3,3,1,3,1,2,1,2,3,3,3,3,1,3,1,3,3,1,3,3,3,3,3,1, ,1,0,0,0,0,0,0,0,3,2,2,3,2,3,2,2, ,8,4,2, ,2, , , , ,1,1, ,1,I'm just Spanish and black
806,1,3,4,1,1, , ,1,1,1, , , , ,5,5,2,3,5,3,2,1,1,1,1,1,0,0,0,0,0,11,4,1,3,5,1,5,3,1, , , , , ,1, , , ,8,1, , , , , , , , , , , , ,1,2,2,0,3,3,0,3,3,3,2,3,3,4,4,4,4,4,4,3,3,3,4,1,3,2,1,4,1,2,4,1,1,1,5,1,5,1, ,1,0,0,0,0,0,0,0,4,5,5,4,5,1,1,2, ,7,2,2, ,1, ,1, , ,0, , , , 
807,1,2,1,1,1, , , ,1, , , , , ,4,5,3,3,4,3,3,2,3,2,2,0,0,0,0,0,1,10,2,1,1,2,2,3,2,3, , ,1, , , , , , ,8, , , , ,1, , , ,1, , , , ,1,3,1,0,1,1,1,1,0,1,2,0,1,2,3,3,2,2,2,2,2,2,3,4,3,3,2,3,2,4,3,1,1,4,3,2,3,1, ,1,0,0,0,0,1,1,0,4,4,4,4,4,5,2,1, ,8,1,2, ,2, , , ,1,0, , , , 
808,1,4,1,1,1, ,1, , , , , , , ,3,4,4,5,5,2,2,1,3,3,3,0,0,0,0,0,1,10,4,1,2,2,2,3,3,4,1, ,1, , , ,1, ,at church,7, ,1,1,1,1, , , , , , , , ,3,3,1,0,1,0,0,1,0,0,0,0,0,4,4,4,2,2,2,2,2,1,3,4,4,4,1,4,3,3,3,2,2,4,1,2,1,1, ,1,1,0,0,0,0,0,0,4,3,2,2,2,4,4,1, ,7,1,2, ,1, , , , ,0,1, ,1,Italian
809,1,3,1,1,1, , ,1, , , , , , ,4,3,5,2,4,3,3,3,3,3,3,0,0,0,0,0,1,11,2,1,1,3,1,1,4,4, , ,1, , ,1, , , ,3, ,1, , ,1, , , ,1, , , , ,2,3,1,2,0,2,1,2,0,0,2,2,0,4,4,4,4,4,4,2,3,3,2,3,4,5,5,4,4,4,4,5,5,2,3,3,3,4, ,1,0,0,0,0,0,0,0,4,5,4,4,5,5,5,2, ,7,1,2, ,1,1, , , ,0, , , , 
811,1,3,1,1,1, , ,1,1, , , , , ,4,5,5,5,5,1,1,1,2,2,2,0,0,0,0,1,0,13,3,3,3,3,3,3,3,3,1, , , , , , , , ,3, , , , , ,1, , , , , , , , , , ,0,0,0,0,3,0,0,0,0,0,3,1,3,1,1,1,1,1,1,2,4,4,1,1,4,1,1,3,1,1,3,3,3,3,1, ,1,0,0,0,0,0,0,0,3,3,3,3,3,3,6,2, ,8,2,2, ,1, , , ,1,0, , ,1, 
814,1,3,1,1, ,1, , , , , , , , ,4,5,5,5,5,1,1,1,3,3,3,0,0,0,0,0,1,10,4,1,2,5,2,3,3,1,1, , , ,1, , , , ,4, , ,1, , , , , , , , , , ,3,3,1,0,0,0,0,1,0,0,0,0,0,1,1,1,1,1,1,1,1,1,2,4,3,5,5,1,4,2,2,1,1,5,1,3,1,1, ,1,1,0,0,0,0,0,0,4,1,2,4,1,5,3,1, ,7,1,2, ,1, , , ,1,0, , , , 
815,1,3,1, , , ,1, , ,1,1,1, , ,4,5,4,2,3,4,4,1,2,2,1,0,0,0,0,1,0,12,5,2,1,3,2,1,5,2, , , , , , , ,1, ,8, , ,1,1,1, , , , , , , , , , , ,2,1,3,2,2,1,3,3,2,1,3,2,2,3,3,2,3,3,3,3,5,3,1,1,1,1,4,1,1,1, , , , , , ,1,1,1,0,0,0,0,0,4,4,2,3,4,3,6,1, ,7,2,2, ,1, , , ,1,0, , , , 
816,1,3,1,1,1, ,1, , , , , ,1,Dog,4,3,5,3,4,2,3,1,2,3,3,0,1,0,0,0,0,9,2,1,3,5,2,4, ,4,1, ,1, , ,1, , , ,8, ,1,1, ,1, , , , , , , , ,1,1,1,1,1,0,1,2,0,0,1,1,1,2,3,2,3,2,3,2,2,3,3,3,3,3,3,3,3,3,3,3,3,5,3,3,3,1, ,0,0,0,0,0,0,0,1,3,3,3,3,3,3,4,1, ,7,2,2, ,2, , , ,1,0, , , , 
819,1,3,1, , , ,1,1,1,1,1,1, , ,2,5,5,4,5,2,2,1,3,3,2,0,0,0,0,0,1,10,4,2,2,5,2,4,2,2,1, ,1, , , , , , ,5, , ,1, ,1, , , , , , , , ,2,4,1,0,0,0,1,2,0,1,0,0,0,2,1,1,1,1,1,1,1,1,2,4, ,4,1,4,5,2,4,1,2,5,2,5,2,1, ,1,0,0,1,0,0,0,0,5,3,3,3,2,4,2,2, ,7,2,2, ,1, , , ,1,0, , , , 
820,1,4,1,1,1,1, ,1,1, , , , , ,2,5,2,3,4,5,1,1,3,3,3,0,0,0,0,0,1,10,2,1,3,2,1,1,3,2, , , , ,1, , , , ,5, , ,1, ,1, , , , , , , , ,1,4,2,0,1,0,0,3,3,0,2,0,0,2,3,1,1,1,1,2,3,3,3,3,4,5,1,3,3,4,4,1,1,4,1,4,3,4, ,1,0,0,0,0,0,0,0,2,2,1,2,2,1,6,1, ,7,1,2, ,2, ,1, , ,0, , , , 
822,1,3,1,1, , ,1, , ,1, , , , ,1,4,4,2,3,2,1,1,3,2,2,0,1,1,0,0,0,8,5,1,3,3,1,2,5,3,1, , , , , , , , ,8, , ,1, ,1, , , , , , , , ,3,3,1,3,1,3,3,1,2,1,2,3,2,4,3,3,3,3,3,2,3,3,3,3,3,3,3,3,3,3,3,3,3,3,3,3,3,2, ,1,0,1,0,0,0,0,0,4,4,4,4,4,4,6,2, ,8,5,2, ,1, ,1, , ,0, , , , 
825,1,5,4,1, ,1,1, , , ,1,1, , ,4,5,5,4,5,1,2,1,3,3,2,0,0,0,0,0,1,11,4,5,3,5,4,5,2,2,1, ,1, ,1,1, , , ,2, ,1,1, ,1,1, , ,1, , , , ,3,2,1,0,1,0,2,3,0,0,2,0,0,4,3,2,1,1,2,2,2,1,4,3,3,4,1,4,3,3,4,1,1,5,1,4,3,4, ,0,0,0,0,0,1,0,0,4,2,5,5,4,3,2,2, ,6,2,2, ,2, ,1, , ,0, , , , 
826,1,5,1,1,1,1, , , , , , ,1,pets,5,4,3,3,5,3,3,1,2,2,2,0,0,0,0,0,1,11,5,1,3,4,2,2,4,4, , , , , ,1, , , ,8,1, ,1, ,1, , , , , , , , ,3,3,1,0,0,0,0,3,0,0,0,0,0,1,1,1,2,1,1,2,2,1,3,3,4,3,1,4,5,3,3,3,3,3,3,3,3,1, ,1,1,0,0,0,0,0,0,2,2,2,1,1,1,3,2, ,7,2,2, ,1, , , ,1,0, , , , 
829,1,3,1,1,1,1, , , , , , , , ,5,4,3,1,5,1,2,5,2,2,2,0,0,0,0,0,1,14,5,3,1,5,1,5,2,5, , , , , , , ,1, ,8, ,1, , , ,1, , , , , , , ,1,2,1,0,1,0,0,3,0,0,1,0,0,3,1,1,1,1,1,1,2,1,3,3,4,1,1,1,1,3,1,1,1,3,1,1,2,1, ,1,0,0,0,0,0,0,0,5,3,2,2,2,3,6,2, ,9,2,2, ,2, , , , ,1,1, , , 
830,1,3,1,1,1,1, , , , , , ,1,2 dogs,4,4,5,4,5,1,1,1,3,2,3,0,0,0,0,0,1,11,4,3,1,5,1,5,1,1,1, , , , ,1, , , ,4, ,1,1, ,1,1,1,1, , , , , ,2,2,1,1,1,0,1,1,0,0,1,0,1,2,1,2,1,1,1,1,1,2,3,3,4,4,1,4,2,2,2,1,3,4,2,4,1,1, ,1,1,0,0,0,0,0,0,4,4,3,4,2,3,5,2, ,7,2,2, ,1, , , ,1,0, , , , 
831,1,3,1,1,1, , , ,1, , , , , ,4,5,5,4,5,1,2,2,3,3,3,0,0,0,0,0,1,11,5,3,2,3,4,4,1,1,1, ,1, , ,1, , , ,1, ,1, ,1, , , , , , , , , ,1,2,1,0,0,0,0,0,0,0,0,0,0,3,2,1,1,1,1,1,1,1,3,4,4,5,1,3,3,5,4,2,3,4,1,4,1,1, ,1,1,0,0,0,0,0,0,5,3,2,3,2,2,2,2, ,7,1,2, ,2, ,1, ,1,0, , , , 
832,1,4,1,1,1, ,1,1, , , , , , ,4,5,5,4,5,3,3,2,3,2,2,0,0,0,0,0,1,11,4,2,1,4,1,4,4,2,1, ,1, , , , , , ,8, ,1, , , ,1,1,1,1, , , , ,1,1,1,0,2,0,2,0,1,1,0,0,1,4,3,3,1,2,1,2,1,1,3,4,3,5,1,4,2,1,3,2,1,4,2,4,2,3, ,0,1,0,0,0,0,0,0,4,3,3,4,3,4,4,1, ,10,1,2, ,2, , , ,1,0, , , , 
833,1,2,1,1,1, , , , , , , ,1,dog,5,4,2,3,5,2,4,4,2,2,2,0,0,0,0,1,1,11,3,1,4,5,3,4,3,4, , ,1, , ,1, , , ,8, , ,1, ,1, , , , , , , , ,2,2,2,0,3,2,1,1,2,2,2,2,3,3,4,4,4,4,3,2,3,3,2,1,4,3,1,4,4,3,1,4,4,3,4,4,4,1, ,1,1,0,0,0,0,0,0,4,4,4,5,4,4,4,2, ,7,2,2, ,2, , , ,1,0, , , , 
834,1,4,1,1,1, ,1,1, ,1, , , , ,4,4,5,4,5,2,1,1,3,2,3,1,1,0,0,0,0,10,2,1,3,3,2,4,1,2,1, ,1, , , , , , ,8, ,1,1,1,1,1,1, ,1,1, , , , , , ,0,0,0,0,3,0,0,0,0,1,2,2,2,3,3,2,2,1,1, , , , , , , , , , , , , , , , , ,1,1,0,0,0,0,0,0,2,1,3,4,1,4,5,2, ,7,2,2, ,1, , , ,1,0, , , , 
836,1,2,1,1,1, , , ,1, , , ,1,Pets a bunny and a guinea pig,5,4,5,3,4,1,2,2,3,3,3,0,0,0,0,0,1,11,3,2,2,3,2,3,2,2,1, ,1, ,1,1, , , ,3, , , , ,1,1, , ,1,1, , , , , , ,3,1,0,1,1,2,1,3,0,0,3,2,2,2,2,1,2,2,2,3,3,3,4,1,5,5,5,5,2,2, , , , , , ,0,1,0,1,0,0,0,0,5,3,3,3,3,4,2,1, ,7,1,2, ,1, , , ,1,0, , , , 
841,1,2,1,1,1, ,1, , , , , ,1,dog,5,5,4,4,5,1,1,2,3,3,2,0,1,0,0,0,0,11,3,1, ,4,3,4,1,2,1, ,1, ,1,1, , , ,5, , , , ,1, , , , , , , , ,3,3,2,0,0,0,0,2,0,0,0,0,0,2, , , , , ,1,1,1, , , , , , , , , , , ,4,2,3,1,1, ,1,0,0,1,0,0,0,0, , , , , , ,3,1, ,7,2,2, ,1, , , , ,0, ,1, , 
843,1,3,1,1,1,1, , , , , , ,1,twin,5,5,4,3,5,1,1,1,3,2,3,0,0,0,0,0,1,10,4,1,1,5,2,3,2,3,1, ,1, , , , , , ,5, , , , , ,1, , ,1,1, , , ,1,4,1,0,2,1,0,2,0,0,0,1,0,4,3,1,4,1,1,1,2,1,4,1,1,3,1,3,1,1,2,1,1,5,1,5,1,6, ,1,1,0,1,0,0,0,0,4,1,1,1,3,1,6,1, ,7,1,2, ,1, , , ,1,0, , , , 
845,1,3,1,1,1, ,1, , ,1, , , , ,3,5,5,3,5,2,4,1,3,3,2,0,0,0,0,0,1,11,4,2,3,5,2,3,2,2, , , , , ,1, , , ,6, ,1,1, ,1, , , ,1, , , , , , , ,0,0,0,1,3,0,0,0,0,0, , , , ,1, , , , ,3,3,3,3,3,3,3,3, ,3, , , , , , , ,1,1,1,1,1,1,1,1,3,3,3,3,3,3,5,1, ,8,2,2, ,1, , , ,1,0, , , , 
846,1,3,1,1,1, , ,1,1,1, , , , ,4,4,5,5,5,1,2,1,3,2,3,0,0,0,0,0,1,12,4,3,2,5,2,1,2,3,1, , , , , ,1, ,when im doing chores,1, ,1, , ,1, , , ,1, , , , ,3,3,1,0,0,0,0,3,0,0,0,0,0,1,1,2,1,1,1,1,1,1,1,4,1,2,1,4,4,2,2,1,1,4,1,5,1,1, ,0,0,0,0,0,0,0,1,1,1,1,1,1,1,3,1, ,7,1,2, ,2, , , ,1,0, , , , 
847,1,3,1,1,1,1, ,1,1, , , , , ,5,5,5,5,5,1,2,2,3,3,3,0,0,0,0,0,1,11,4,4,3,5,5,5,1,1,1, ,1, , ,1, , , ,4, ,1,1,1,1, , , , , , , , , , , ,1,0,0,3,0,1,0,0,0,0,3,2,3,1,2,1,1,2,1,3,4,4,5,1,4,4,5,4,1,3,4,2,3,2,1, ,1,0,0,1,0,0,0,0,4,3,2,3,1,4,1,2, ,8,1,2, ,1, , , ,1,1, , , , 
848,1,2,1,1,1,1, , ,1, , , , , ,4,4,5,3,5,3,2,1,3,3,2,0,0,0,0,0,1,9,5,5,5,5,5,5,5,5, , , , , , , ,1, ,8, , , , , , , , , , , ,1, ,1,1,4,3,3,3,3,0,3,3,0,3,3,4,4,4,4,4,4,3,3,3,5,5,5,5,5,5,5,5,5,5,5,5,5,5,5,1, ,0,1,0,0,0,0,0,0,5,5,5,5,5,5,5,1, ,7,1,2, ,1, , , ,1,0, , , , 
849,1,3,1,1,1, , ,1, , , , , , ,4,5,4,4,5,1,1,1,3,2,2,0,0,0,0,0,1,11,4,2,3,2,2,2,3,2,1, , , ,1,1, , , ,4, , , , ,1, , , , , , , , ,1,4,1,1,1,0,0,2,0,0,1,0,0,3,3,3,3,3,3, , , , , , , , , , , , , , ,4,2,4,2,1, ,999,999,999,999,999,999,999,999,4,4,4,4,4,4,2,1, ,10,2,2, ,2, , , ,1,0, , , , 
853,1,3,1,1,1,1, , , , , , , , ,4,5,3,4,5,2,1,1,3,3,3,0,0,0,0,0,1,10,5,1,1,2,3,3,4,2, , ,1, , , , , , ,4, ,1, ,1, ,1, , , , , , , ,1,3,1,0,0,0,0,1,0,0,1,0,0,3,1,3,2,3,2,1,1,1,3,3,4,3,1,3,4,3,3,1,1,4,1,4,1,1, ,1,0,0,1,0,0,0,0,4,4,3, ,3,4,3,1, ,7,1,2, ,2, , , , ,0, , ,1,American
854,1,4,1,1,1,1, , , , , , , , ,5,5,4,5,5,1,1,2,2,3,2,0,0,0,0,0,1,9,2,1,2,4,5,3,1,2,1, , , , , , , , ,8, ,1, ,1, ,1, , , , , , , ,2,2,1,0,1,0,0,3,0,0,0,0,0,1,1,2,2,1,1,1,1,1,1,4,4,3,1,1,4,1,2,3,3,4,1,5,1,4, ,0,0,1,0,0,1,0,0,4,3,3,3,3,3,2,2, ,7,2,1,Reading and Math,1, , , ,1,0, , , , 
859,1,3,1,1,1,1,1, , , , , , , ,5,4,4,3,5,2,1,2,2,2,1,0,1,0,1,0,0,13,1,1,3,4,1,1,3,3, , , , , , , ,1, ,8, ,1,1, ,1, , , , , , , , ,1,3,2,1,1,0,0,2,0,0,0,0,0,3,2,2,2,2,2,2,2,2,4,2,3,4,5,4,4,4,3,5,1,4,3,3,2,1, ,1,1,0,1,0,0,0,0,4,4,4,4,4,4,2,2, ,10,3,2, ,2, , , ,1,0, , , , 
860,1,3,1,1,1, , , ,1, , , , , ,5,5,4,5,5,1,1,2,3,2,2,0,0,0,0,0,1,11,4,3,1,5,3,5,1,1,1, , , , , , , , ,3, ,1, , ,1, , , , , , , , , , , ,0,1,0,0,2,0,1,0,0,1,3,2,2,1,1,1,1,1,1,1,4,4,5,1,3,4,1,3,3,2,5,1,4,1,1, ,1,1,0,0,0,0,0,0,4,1,3,4,3,4,2,2, ,7,1,2, ,2, , , ,1,0, , , , 
861,1,2,1,1,1, , ,1, , , , , , ,5,4,3,2,4,2,4,3,3,3,3,0,0,0,0,0,1,11,4,4,5,4,2,3,4,4,1, ,1, ,1, , , , ,8, ,1, , , ,1, , , , , , , , , , ,2,3,3,3,2,2,2,2,2,3,3,3,3,3,3,3,3,2,3,3,1,4,4,1,4,1,3,3,2,2,2,3,2,4,2, ,1,1,0,1,0,1,0,0,4,4,4,4,4,4,5,3,non binary (they/them),7,1,2, ,2, , , ,1,0, , , , 
862,1,3,3,1, , , , , , , , , , ,2,4,4,2,5,1,1,2,3,2,2,1,0,0,0,0,0,9,3,2,3,4,2,4,3,2,1, ,1, ,1,1, , , ,8,1, , , , , , , , , , , , ,2,4,1, , , , , , , , , , , , , , , , ,1,1,1,2,3,3,1,1,4,2,4,2,1,3,2,2,3,4,1, ,1,0,0,1,0,0,0,0,2,3,3,2,1,2,2,1, ,7,3,2, ,2, , , , ,0,1, , , 
864,1,3,1,1,1, , , ,1, , , , , ,5,5,4,4,5,1,3,3,3,3,3,0,0,0,0,1,0,11,5,1,2,5,5,5,2,1,1, , , ,1,1, , , ,4, ,1, , ,1,1, , , , , , , ,2,2,1,0,0,2,2,2,2,2,2,2,2,3,3,3,3,3,3,3,3,3,3,5,4,4,5,3,4,5,2,5,5,2,3,2,3,1, ,1,1,0,0,0,0,0,0,5,5,5,5,4,5,6,2, ,7,1,2, ,1, , , ,1,0, , , , 
866,1,3,7,1,1,1,1, , , , , ,1, ,2,3,3,1,5,2,5,3,2,2,2,1,1,0,1,1,0,11,3,1,5,5,3,2,2,3,1, ,1, , ,1,1, ,at other peoples houses,6, ,1,1,1, , ,1, , , , , , ,1,2,3,3,3,2,3,3,2, ,2,2,2,3,3,4,4,4,4,2,3,2,3,2,4,5,2,5,1,3,2,4,1,2,5,2,5,4, ,0,0,0,0,0,0,0,1,4,4,4,3,4,4,2,2, ,7,2,2, ,2, , , , ,0, ,1, , 
867,1,3,1,1,1, , ,1, ,1, , , , ,4,5,2,1,5,3,3,1,3,3,3,0,1,0,0,0,0,11,4,1,3,5,1,4,3,1, , ,1, , ,1, , , ,7, ,1, , , ,1, , , ,1, , , ,1,3,2,0,0,0,0,2,2,0,0,1,0,4,2,3,1,1,1,1,1,2,3,1,4,4,1,4,1,3,3,1,2,5,1,5,1,4, ,1,1,0,0,0,0,0,0,5,5,5,3,1,5,5,2, ,7,1,2, ,2, , , ,1,0, , , , 
868,1,4,6,1, , ,1, , , , , , , ,3,5,3, ,4,3,3,2,2,2,2,0,1,0,0,0,0,12,4,3,2,5,3,4,2,2,1,1,1,1,1,1, , , ,1, ,1,1, ,1, , , ,1,1, , , ,3,3,2,1,1,0,3,0,3,2,0,1,1,2,1,2,1,1,1,1,1,1,1,3,4,4,1,4,4,4,4,1,4,5,2,4,2,2, ,1,0,0,0,0,0,0,0,5,5,5,4,4,5,1,1, ,7,2,1,I have a iep. I don't think I need it though I get good grades often.,2, ,1, , ,1,1, , , 
869,1,5,1,1,1, , , ,1, , , , , ,5,5,5,3,4,1,1,2,3,2,3,0,0,0,0,0,1,10,4,2,5,3,3,4,1,2,1, ,1, ,1, , , , ,4, ,1,1, ,1, , , , , , , , ,3,4,1,0,1,0,1,1,0,0,0,0,0,3,2,2,2,3,2,1,1,1,4,4,4,4,1,4,4,4,4,4,1,4,1,5,1,1, ,1,0,0,0,0,0,0,0,5,5,4,4,2,4,4,1, ,7,2,2, ,1, , , ,1,0, , , , 
871,1,2,1,1, , , , , ,1,1, , , ,6,4,2,3,4,2,1,1,2,2,1,0,0,0,0,0,1,12,4,1,2,3,2,3,3,3, , ,1, ,1, , , , ,4, , , , , , , , ,1, , , , ,1,4, ,2,3,3,0,3,3,1,3,0,3,2,2,3,1,3,1,1,1,1,4,1,4,2,4,4,1,4,1,4,2,4,4,3,5,4, ,0,0,0,1,0,0,0,0,3,5,3,5,5,5,2,1, ,7,3,2, ,2, , , ,1,0, , , , 
872,1,2,1,1, ,1, , , ,1, , , , ,4,4,3,4,5,4,2,1,3,3,3,0,0,0,0,0,1,9,5,1,2,3,1,2,2,3, , ,1, , ,1,1, ,While cleaning my room,8, ,1, , , ,1, , ,1, , , , ,2,3,3,0,0,0,2,0,0,1,1,0,1,3,3,2,1,1,2,2,2,2,3,3,2,4,1,3,4,3,3,1,1,3,2,1,4,4, ,0,1,0,0,0,0,0,0,3,2,3,2,4,4,1,2, ,7,2,2, ,1, , ,1,1,0, , ,1,Russian
875,1,5,3,1,1, , , , , , , , , ,5,5,5,5,5,1,1,1,3,3,3,1,0,0,0,0,0,9,5,5,5,5,2,5,3,2,1, ,1, ,1,1, , , ,5, ,1,1,1, ,1, , , , , , , ,2,2,1,0,1,1,1,2,1,1,2,1,1,1,1,1,1,1,1,3,1,1,1,2,1,2,1,2,3,2,1,1,1,5,2,5,2,1, ,1,0,0,0,0,0,0,0,1,1,1,1,1,1,1,2, ,7,4,1,ell,2, , , , ,0,1, , , 
877,1,5,1,1,1,1, , , , , , , , ,4,5,4,4,5,2,1,1,2,2,2,0,0,0,0,0,1,11,5,1,1,5,1,5,3,3, , , , , , , ,1, ,8, ,1,1,1,1,1,1,1,1,1, , , , , , ,0,1,0,1,3,0,0,0,0,1,2,2,3,3,3,1,1,1,1,4,3,4,5,1,3,4,5,3,1,3,4,2,3,2,1, ,1,0,0,1,0,0,0,0,5,5,1,3,1,5,2,2, ,8,1,2, ,1, , , ,1,0, , , , 
878,1,3,1,1,1, , ,1,1, , , , , ,5,3,4,1,5,1,1,3,3,3,3,0,0,0,0,0,1,13,3,3,3,3,3,3,3,3, , , , , , , ,1, ,8,1, , , , , , , , , , , , ,1,1, ,0,0,0,1,2,0,1,2,0,2,3,4,3,2,2,2,3,1,2,4,1,4,4,1,3,4,4,2,1,1,3,3,2,4, , ,1,1,0,1,0,0,0,0,4,5,1,2,3,5,6,1, ,9,2, , ,2, , , ,1,0, , , , 
879,1,5,1,1,1,1,1, , , , , ,1, ,2,5,5,5,5,5,5,5,1,1,1,0,1,0,0,0,0,14,5,1,2,5,4,1,5,1, , , , , ,1, , , ,6,1, , , , , , , , , , , , ,2,3,2,0,3,2,1,1, ,2,1, , ,3,2,4,3,4,3,2,3,2,3,2,4,1,3,3,2,3,2,3,1,1,2,3,1,2, ,1,0,0,0,0,1,0,1,4,5,4,4,4,4,2,1, ,10,1,1,aide,2, , , ,1,0, , , , 
888,1,3,1,1,1, ,1, , , , , , , ,3,4,4,5,5,1,1,1,3,3,2,0,0,0,0,0,1,12,4,1,2,4,1,5,4,1,1, ,1, , , , , , ,3, ,1, , , ,1, , ,1, , , , ,1,3,1,0,0,0,3, ,0,0,0,0,1,3,4,4,1,1,1,1,1,1,4,1,4,5,5,4,1,4,3,1,1,4,2,4,2,4, ,1,0,0,1,0,0,0,0,1,1,1,1,1,1,1,1, ,7,1,2, ,1, , , , ,1,1, , , 
889,1,4,1,1,1, ,1, ,1, , , , , ,5,4,4,4,5,1,2,1,3,3,2,1,1,0,0,0,0,9,4,1,2,4,2,3,2,2,1,1,1, , , , , , ,8, ,1,1, ,1, , , , , , , , ,2,2,1,0,1,0,0,2,0,2,1,0,1,4,2,3,1,1,1,1,1,1,2,2,3,4,1,5,4,3,2,1,1,5,1,1,1,1, ,1,0,0,0,0,0,0,0,4,1,1,1,1,1,3,1, ,7,1,2, ,2, , , ,1,0, , , , 
890,1,3,1,1,1, ,1, , , , , , , ,5,4,5,5,5,2,1,1,2,2,3,0,0,0,0,0,1,9,4,2,1,5,2,2,1,4,1, , , , , , , , ,8, ,1,1, ,1,1, , , , , , , , , , ,0,1,0,0,2,0,1,2,0,1,3,3,2,3,3,3,2,3,2,3,4,4,4,2,4,4,2,2,4,3,4,3,3,2,1, ,1,1,1,1,1,1,1,0,5,5,3,3,1,5,2,2, ,10,2,2, ,2, , , ,1,0, , , , 
893,1,3,1,1,1, , , , , , , , , ,3,3,2,2,4,2,3,1,3,3,2,0,0,0,0,0,1,11,1,1,2,4,1,1,5,2, , , , , , , ,1, ,8, , ,1, ,1, , , , , , , , , , , , , , , , , , , , , , , , , , , , , , , , , , , , , , , , , , , , , , , ,999,999,999,999,999,999,999,999, , , , , , , ,1, ,9,6,1, ,1, , , ,1,0, , , , 
898,1,4,2,1, , ,1, , , , , , , ,1,4,3,2,3,3,3,2,2,2,2,0,1,0,0,1,0,14,2,1,1,4,1,1,1,3, , , , , , , ,1, ,8, , ,1,1, , , , , , , , , ,3,3,1,0,0,0,1,2,1,1,2,2,0,4,4,4,3,3,2,2,2,2,2,4,4,5,2,3,3,5,3,2,2,3,3,3,3,1, ,1,0,0,1,0,0,0,0,4,3,4,4,4,4,6,2, ,10,2,2, ,2, , , , ,1,1, , , 
899,1,5,1,1,1, , , , ,1, , , , ,4,5,5,5,5,2,2,1,3,3,3,0,0,0,0,0,1,12,4,1,1,4,3,3,2,1, , , , ,1,1, , , ,3,1, , , , , , , , , , , , ,3,1,1,0,0,1,1,2,0,0,1,0,0,1,2,2,2,2,1,1,1,1,2,3,2,1,1,3,2,3,4,1,1,5,2,4,1,1, ,1,0,0,0,0,0,0,0,4,2,2,2,2,3,2,1, ,10,3,2, ,2, , , ,1,0, , , , 
900,1,2,1,1,1, ,1, , , , , , , ,4,5,5,3,5,2,2,1,3,3,3,1,0,0,0,0,0,8,3,1,2,2,2,1,3,3, , ,1, , ,1, , , ,8, , ,1, ,1, , , , , , , , ,2,2,2,0,1,0,1,2,0,0,0,0,0,3,2,3,2,1,1,3,2,2,1,4,4,4,1,2,4,3,4,1,1,3,1,1,2,1, ,1,0,0,0,0,0,0,0,3,1,2, ,1,3,2,1, ,7,2,2, ,1, , , ,1,0, , , , 
901,1,3,1,1, ,1, , , , , , , , ,6,5,4,2,5,1,1,1,2,3,2,0,1,0,1,1,0,8,1, ,2,1,1,1,1,3,1, ,1, , ,1, , , ,8,1, , , , , , , , , , , , , , , , , , , , , , , , , ,2,3,2,1,4,3,2,1,3, , , , , , , , , , , , , , , ,4, ,1,0,0,0,1,1,0,0, , , , , , ,6,1, ,7,2,1,acidemic suport,2, , , ,1,0, , , , 
902,1,2,1,1,1, , , ,1, , , , , ,5,4,5,3,4,1,3,3,3,3,3,0,0,0,0,0,1,12,4,2,3,5,1,4,2,1,1,1,1, , , , , , ,3, ,1, ,1,1,1, , , , , , , , , , , , , , , , , , , , , , , , , , , , , , , , , , , , , , , , , , , , , , ,999,999,999,999,999,999,999,999, , , , , , , ,1, ,7,1,2, ,1, , , ,1,0, , , , 
905,1,2,6,1,1, , , ,1, , , , , ,4,3,5,3,3,1,1,2,2,2,2,0,0,0,0,0,1,0,5,2,1,1,1,2,3,1,1, , , , ,1, , , ,3,1, , , ,1, , , , , , , , ,1,1,1,0,3,1,3,1,0,2,2,3,1,4,4,4,2,3,2,3,2,2,4,1,2,5,1,3,3,1,4,3,1,4,3,3,5,2, ,1,0,0,0,1,0,0,0,3,5,2,3,4,2,6,2, ,7,1,2, ,1,1, , , ,0, , , , 
906,1,4,4,1, ,1, ,1, , , , , , ,5,3,5,3,4,1,2,1,3,3,2,0,1,0,0,0,0,11,3,1,2,4,2,3,3,1, , , , ,1,1, , , ,3, , , , , ,1, , , , , , , ,2,3,1,1,2,1, ,1,2,1,1,1,1, ,2,3,2,1,1,1,2,3,1,1,5,5,1,5,1,5,1,2,3,1,4,3,4,6, ,1,0,0,1,0,1,0,0,4,4,3,3,4,3,5,2, ,9,2,2, ,2, ,1, , ,0, , , , 
908,1,5,1,1,1, , ,1, , , , , , ,4,5,5,3,5,2,2,1,3,3,3,999,999,999,999,999,999,11,4,2,1,3,1,2,4,4,1, ,1, , , , , , ,8, ,1, , , , , , , , , , , ,1,1,1,0,0,0,0,0,0,0,0,0,0,3,1,2,1,1,1,1,1,1,1,4,4,5,1,1,4,3,4,1,4,5,1,5,1,1, ,0,1,0,0,0,0,0,0,2,1,2,2,1,1,6,1, ,10,1,2, ,1, , , ,1,0, , , , 
909,1,3,1,1,1, , , , , , , , , ,4,5,5,5,5,1,1,1,2,2,2,0,1,0,0,0,0,12,5,5,2,5,4,4,3,2,1,1,1, ,1,1, , , ,4, ,1, , , ,1, , , , , , , ,4,1,2,0,0,0,0,1,0,1,0,0,0,3,3,2,2,2,2,1,1,1,3,3,1,5,1,3,3,4,2,1,1,4,2,2,2,1, ,0,0,0,0,1,1,0,0,2,2,2,2,2,2,1,1, ,7,2,2, ,2, , , ,1,0, , , , 
912,1,3,1,1, ,1, , , , , , , , ,4,4,5,5,5,5,5,5,3,3,3,1,0,1,1,0,0,9,5,4,5,5,3,5,3,3, , , , ,1, , , , ,8, , , , ,1, , , , , , , , ,1,4,1,0,0,0,3,0,0,0,0,0,0,3,2,1,1,1,1,1,2,1,2,4,4,4,5,4,4,4,4,4,4,5,2,5,1,1, ,999,999,999,999,999,999,999,999,4,1,1,1,1,3,3,2, ,7,2,2, ,1, , , , ,1, , ,1, 
913,1,4,1,1,1, , ,1, , , , , , ,4,4,5,4,5,3,3,2,3,3,2,0,0,0,0,0,1,8,5,3,3,4,2,4,2,2, , , , , , , ,1, ,8, ,1, , ,1,1,1, , , , , , ,2,2,2,3,3,2,1,2,1,2,1,1,1,3,4,2,3,3,2,2,3,2,3,4,4,2,2,4,4,2,3,4,2,4,4,3,4,2, ,0,1,0,0,0,0,0,0,5,4,4,3,3,5,6,2, ,7,2,2, ,1, , , ,1,0, , , , 
917,1,3,1,1, , , , , , ,1, , , ,4,5,5,4,5,2,1,1,3,3,3,0,0,0,0,0,1,9,1,1,2,4,2,2,4,1,1, , , , , , ,1, ,8, ,1, , ,1, , , , , , , , ,2,2,1,0,2,0,0,1,0,1,0,0,0,4,3,4,1,1,1,1,2,1,3,3,4,4,1,3,3,1,2,1,1,4,1,4,1,3, ,0,1,0,0,0,0,0,0,3,3,3,1,1,4,6,2, ,7,1,2, ,1, , , ,1,0,1, , , 
918,1,3,1,1,1,1,1, , , , , , , ,4,5,5,4,4,1,2,1,3,3,2,0,0,0,0,0,1,10,4,3,2,3,4,4,1,2,1, ,1, , , , , , ,6, ,1, , , ,1, , , , , , , ,2,2,2,0,0,0,0,3,0,0,2,0,0,4,3,1,1,1,1,1,1,1,4,1,1,1,1,4,1,4,1,1,1,4,2,3,2,4, ,0,1,0,0,0,0,0,0,3,4,3,4,3,4,6,2, ,7,1,2, ,2, , , ,1,0, , , , 
919,1,3,1,1,1, , ,1, , , , , , ,4,4,2,5,4,2,2,2,3,3,3,0,0,0,0,0,1,11,4,2,2,3,2,3,3,2, , , , , ,1, , , ,8, ,1, , ,1, , , , , , , , ,1,2,2,0,0,0,2,2,1,0,0,1,0,2,1,1,1,2,1,1,2,1,1,4,4,4,1,3,2,2,3,1,3,3,3,3,3,2, ,1,0,0,0,0,0,0,0,4,4,3,3,2,2,2,2, ,7,1,2, ,1, , , ,1,0, , , , 
920,1,2,1,1,1, ,1, ,1,1, , , , ,3,3,3,2,4,2,3,5,2,1,1,0,1,0,1,0,0,11,5,1,3,2,3,3,3,1,1, , , , , , , , ,8, ,1,1,1,1,1,1,1,1,1, , , ,1,1,4,3,3,3,3,0,1,2,1,3,3,4,4,4,4,4,4,3,3,3,1,5,2,3,5,1,2,3,4,5,5,5,5,2,5,1, ,1,1,0,1,1,1,0,0,1,1,1,2,1,1,4,2, ,7,2,2, ,2, , , ,1,0, , , , 
921,1,4,1,1,1, ,1, ,1, , , , , ,4,4,3,2,5,5,5,5,3,3,3,0,0,0,0,0,1,12,3,1,2,5,1,3,1,2, , , , ,1,1, , , ,7, ,1, ,1, , , , , , , , , ,4,3,2,0,3,3,2,3,3,2,1,3,3,4,4,4,4,4,4,2,2,2,1,4,4,1,1,4,1,3,2,3,1,1,5,1,5,1, ,1,1,0,0,0,1,0,0,5,5,5,5,1,5,6,2, ,7,1,2, ,1, ,1, , ,0, , , , 
923,1,4,3,1,1, , ,1,1,1, , , , ,1,4,2,2,5,2,2,2,2,2,2,1,0,0,0,0,0,8,4,1,2,2,3,2,5,5,1,1, , ,1,1, , , ,7, ,1,1, ,1, , , ,1, , , , ,2,1,3,3,0,1,2,2,0,2,2,0,0,1,3,4,2,2,2,2,3,2,4,2,3,2,2,3,2,4,2,2,2,3,2,1,2,1, ,0,0,0,0,0,0,0,1,2,5,2,3,4,1,2,1, ,7,3,2, ,2, , , , ,0,1, , , 
925,1,3,2,1,1,1, , , , ,1, ,1,Niece,1,5,5,5,5,1,1,1,3,3,3,0,0,0,0,0,1,10,5,1,1,5,1,5,3,3, , , , ,1, ,1, ,After school,8, ,1, , ,1, , , ,1, , , , ,3,4,1,0,0,0,3,0,0,0,0,0,0,1,1,1,1,1,1,1,1,1,1,4,4,5,1,4,4,4,4,1,1,5,1,5,2,1, ,0,0,0,0,0,0,0,1,4,1,2,3,1,1,6,1, ,8,2,2, ,2, , , , ,1,1, , , 
928,1,3,1,1,1, , , , , , , , , ,4,3, ,1,2,1,1,1,3,3,3,0,0,0,0,0,1,13,3,1,1,3,1,1,5,3,1, ,1, ,1,1, , , ,8,1, , , , , , , , , , , , ,1,1,2,0,3,0,1,2,0,0,1,1,1,4,4,4,1,1,1,3,3,3,3,1,4,5,1,4,4,4,4,1,1,4,2,4,2,1, ,1,1,0,1,0,0,0,0,4,4,2,2,2,2,4,1, ,10,2,2, ,2, , , ,1,0, , , , 
929,1,3,1,1,1,1,1, , , , , , , ,5,4,3,2,5,1,2,1,3,2,3,0,0,0,0,0,1,11,2,1,2,4,2,4,4,3,1, ,1, , , , , , ,2, , ,1, , , , , , , , , , ,3,3,1,1,1,0,1,2,0,0,1,0,2,3,2,3,1,1,1,2,1,1,3,1,1,1,1,1,4,4,3,1,1,4,1,1,2,1, ,1,1,0,1,0,0,0,0,4,1,2,3,2,4,1,3, ,7,2,2, ,1, , , ,1,0, , , , 
930,1,3,1,1, , ,1, , , , , , , ,5,5,3,2,5,4,4,2,3,3,2,0,0,0,0,0,1,11,4,1,2,5,2,5,4,3,1, , , , , , , , ,8, ,1,1,1,1,1,1, , , , , , ,3,3,2,1,2,0,1,1,0,1,0,0,1,4,3,4,3,4,3,2,1,2,4,4,4,3,1,4,4,1,4,1,1,3,5,2,4,1, ,1,1,0,1,0,1,0,0,4,4,4,5,2,4,2,2, ,8,1,2, ,2, , , ,1,0, , , , 
934,1,5,4,1,1, , , , , , , , , ,4,5,3,4,5,2,3,2,2,2,1,0,1,0,0,1,0,11,4,1,2,5,1,4,3,1, , ,1, ,1,1, , , ,8, ,1,1, ,1, , , , , , , , , , , , , , , , , , , , , , , , , , , , , , , , , , , , , , , , , , , , , , , ,999,999,999,999,999,999,999,999, , , , , , , ,2, ,7,4,1, , , , , , ,0, , ,1,creale
935,1,3,4,1, , , , , , , , , , ,5,3,5,4,5,2,5,5,2,3,3,0,1,0,0,0,0,8,5,1,5,5,1,1,5,1, , , ,1, , , , , ,3, ,1,1, ,1,1, , ,1,1, , , , , , ,0, ,1,2,1,0,1,1,2,2,3,2,3,1,1,1,2,2,3, , , , , , , , , , , , , , , , , ,1,0,0,1,0,0,1,0,4,4,3,3,2,4,6,1, ,7,2,2, ,2, , , , ,0, , ,1,Haitan
936,1,3,1,1,1, , ,1, , , , , , ,6,4,3,4,5,2,2,3,2,2,2,0,0,0,0,0,1,8,5,3,3,4,4,5,3,2,1, ,1, ,1,1, , , ,6, ,1,1, ,1, , , ,1, , , , ,1,3,2,0,1,0,1,1,0,0,0,0,1,3,3,3,2,3,3,2,1,2,5,3,4,5,5,4,5,4,3,3,3,4,2,3,3,1, ,1,1,0,0,0,0,0,0,5,4,3,4,2,3,5,1, ,7,4,2, ,1, , , ,1,0,1, , , 
937,1,3,1, ,1, , , , , , , , , ,6,5,4,1,5,4,4,1,2,2,2,1,0,0,0,0,0,10,3,1,2,3,2,4,3,4, , , , , , ,1, , ,4, , , , ,1, , , ,1, , , , , , , ,1,0,3,2,0,0,1,0,2,2,3,2,3,2,3,3,2,2,1,4,3,4,4,2,4,3,4,3,4,3,4,3,3,4,4, ,0,0,0,0,0,0,0,1,3,4,3,3,4,2,3,1, ,7,5,2, ,2, , ,1, ,1, , , , 
938,1,2,3,1,1, ,1, , , , , , , ,4,3,4,1,4,1,4,5,2,2,2,0,1,0,1,0,0,0,1,1,3,1,1,2,1,1, , , ,1, , , , , ,1, , , , , , , , , , , ,1,i don't have a phone,2,4,1,0,0,0,0,3,0,0,3,0,0,1,1,1,1,1,1,1,1,2,1,2,4,1,1,3,3,1,2,1,4,4,4,1,4,4, ,999,999,999,999,999,999,999,999,2,4,2,3,3,3,6,1, ,7,2,2, ,2, , , , ,0,1, , , 
940,1,3,1,1,1, ,1, , , , , , , ,5,5,4,2,5,3,1,1,3,3,2,0,0,0,0,0,1,9,4,1,1,5,1,3,5,3,1, ,1, , , , , , ,8, ,1, , , , , , , , , , , ,1,2,1,0,0,0,3,0,0,2,0,0,0,1,1,1,1,1,1,1,1,1,2,3,3,4,1,1,1,3,3,1,1,5,1,5,1,1, ,999,999,999,999,999,999,999,999,1,1,1,1,1,1,2,1, ,7,3,2, ,1, , ,1, ,0, , , , 
941,1,4,2,1,1, ,1, , , , , , , ,4,4,5,4,5,1,1,1,3,2,3,0,0,0,0,0,1,12,5,1,2,5,2,3,3,1,1, , , , , , , , ,3, ,1,1, , ,1, , , , , , , , , , , , , , , , , , , , , , , , , , , , , , , , , , , , , , , , , , , , , , ,999,999,999,999,999,999,999,999, , , , , , , ,2, ,9,2,2, ,2, , , , ,1,1, , , 
944,1,4,2,1,1,1, , ,1, , , , , ,1,5,4,3,5,2,2,1,3,3,2,0,0,0,0,0,1,14,4,1,2,5,4,5,4,2, , , , , ,1, , , ,7, ,1,1, , , , , , , , , , , , , ,0,1,1,1,1,0,0,1,0,0,3,3,3,2,3,1,2,2,3,3,4,4,5,3,4,1,5,2,1,3,3,4,3,4,1, ,1,0,0,1,0,1,0,0,3,3,3,4,3,3,2,2, ,10,1,2, ,2, , , , ,1,1, , , 
945,1,3,1,1,1,1, ,1, , , , , , ,1,4,1,1,5,3,2,1,2,2,2,0,0,1,1,0,0,9,4,1,1,1,1,1,5,3, , , , , , , ,1, ,8, , , , , ,1, , , , , , , , ,5,2,0,0,0,0,3,0,3,0,0,0,4,3,4,1,1,1,1,1,1,4,2,2,4,1,4,1,5,3,1,1,3,1,2,5,1, ,0,0,0,0,0,0,0,1,1,5,2,2,2,2,6,1, ,7,4,1,speech,1, , , ,1,0, , , , 
946,1,3,1,1,1, , ,1, , , , , , ,5,5,5,5,5,3,3,1,3,3,3,0,0,0,0,0,1,9,2,1,1,3,1,3,3,3, , , , , , , ,1, ,8,1,1, , , , , , , , , , , ,4,4,1,1,1,0,0,2,0,0,0,0,0,1,1,1,1,1,1,1,1,1,4,3,3,4,1,3,5,3,4,3,3,4,2,4,2,1, ,1,1,0,1,0,0,0,0,4,2,2,2,2,3,5,2, ,8,2,2, ,2, , , , ,0, , ,1,greek
949,1,3,1,1,1,1, , , , , , , , ,4,4,4,5,5,1,3,1,2,3,3,0,0,0,0,0,1,11,5,1,3,4,2,5,3,1,1, , , , ,1, , , ,8, ,1, , , , , , , , , , , ,4,4,1,0,0,0,0,2,0,0,0,0,0,4,3,3,1,1,1,1,1,1,5,4,4,4,5,4,5,5,4,5,5,1,1,4,1,4, ,0,1,0,0,0,0,0,0,3,3,3,3,3,3,3,2, ,8,2,1,i dont really know what it is for,1, , , ,1,0, , , , 
953,1,3,1,1,1, ,1,1,1, , , , , ,2,5,5,5,5,2,1,1,3,3,3,0,0,0,0,0,1,0,5,5,5,5,5,5,1,3,1, ,1, ,1,1, , , ,4, ,1,1, ,1, , , , , , , , ,3,4,1,0,0,0,0,0,0,0,0,0,0,1,1,2,1,1,1,1,1,1,1, ,4,1,1,4, ,3,4,1,3,5,1,5,1,1, ,0,1,0,0,0,0,0,0,1,3,3,5,1,2,1,1, ,7,2,2, ,2, ,1, , ,1,1, , , 
957,1,3,1,1,1, , , ,1, , , , , ,3,4,3,3,5,4,3,2,2,2,2,0,0,0,0,0,1,10,3,2,3,5,4,5,2,2,1, ,1, , ,1, , , ,8, ,1, ,1,1,1, , ,1,1, , , ,3,3,1,2,2,1,0,2,1,3,3,0,1,3,4,4,4,4,3,2,2,2,4,2,4,2,2,4,2,4,2,4,4,3,3,3,3,2, ,1,0,0,0,1,0,0,0,4,4,3,4,3,4,4,2, ,7,4,2, ,1, , , ,1,1, , , , 
958,1,5,1,1,1, , ,1,1, , , , , ,5,4,4,3,3,1,2,2,3,3,3,0,0,0,0,0,1,0,3,2,2,3,2,2,3,1,1, , , , , , , , ,4, , , , ,1, , , , , , , , , , , ,0,1,0,3,0,1,2,0,0,2,4,4,3,1,1,1,1,1,1,3,4,4,5,1,3,4,1,3,1,2,5,1,4,2,1, ,0,1,0,1,0,0,0,0,4,2,4,3,1,2,2,2, ,7,1,2, ,1, , , ,1,0, , , , 
961,1,3,3,1,1, , , , , , , , , ,2,5,5,5,5,3,2,1,2,3,2,999,999,999,999,999,999,11,5,2,3,4,5,4,2,3, , , , , , , , , ,1, , , , , , , , , , , , , , , , , , , , , , , , , , ,2,2,2,2,2,2,1,1,1, , , , , , , , , , , ,3,1,3,3, , ,999,999,999,999,999,999,999,999, , , , , , , ,2, ,7, ,2, ,2, , , , ,0,1, , , 
962,1,5,1,1,1,1, , , , , , , , ,5,5,5,4,5,2,1,1,3,3,3,0,0,0,0,0,1,11,4,3,2,5,4,3,1,2,1, ,1, , ,1, , , ,8, ,1,1,1,1,1,1, ,1,1, , , ,3,4,1,1,0,0,0,0,0,1,0,0,1,3,1,2,3,2,1,1,2,1,2,4,4,3,1,3,4,3,4,3,4,5,2,4,2,1, ,0,1,0,0,0,0,0,0,5,4,2,4,1,4,1,2, ,7,1,2, ,2, , , ,1,0, , , , 
963,1,3,1,1, , ,1,1, , , , ,1,baby niece,6,4, , , , , , ,2,2,2,0,0,0,0,1,0,12,4,2,2,3,3,3,3,2, , , , , ,1, , , ,8,1, , , , , , , , , , , , , , , , , , , , , , , , , , , , , , , , , , , , , , , , , , , , , , , , , , , ,999,999,999,999,999,999,999,999, , , , , , , ,1, ,7,3,1,I get extra help,1, , , , ,1, , ,1,Hispanic
964,1,3,5,1,1, ,1,1, , , , , , ,6,4,2,1,1,1,4,3,2,2,2,0,0,0,0,0,1,8,3,1,3,1,1,3,1,1,1,1,1, ,1,1, , , ,2,1, , , , , , , , , , , , ,1,4,2,0,1,0,3,0,0,0,0,1,2,4,3,3,1,1,1,2,3,2,5,4,5,5,5,3,2,4,3,1,4,3,3,2,4,1, ,0,0,0,0,0,0,0,1,1,4,2,5,4,2,6,1, ,7,4,1,Things that I am having trouble on,2,1, , , ,0, , , , 
965,1,3,1,1, ,1,1, , , , , , , ,2,5,3,3,5,5,4,5,3,3,3,0,0,0,0,0,1,10,5,3,3,5,1,3,3,2, , ,1, , ,1, , , ,8, ,1,1,1,1,1,1,1,1,1,1, , ,1,3,1,0,2,2,3,2,0,2,1,2,2,3,1,3,3,2,3,1,2,3,4,3,3,5,1,5,2,5,4,4,5,4,2,5,4,1, ,0,0,0,0,0,0,0,1,4,5,1,5,5,5,3,2, ,7,1,2, ,1, ,1, , ,0, , , , 
973,1,2,1,1, , , ,1, ,1, , ,1,Pets,4,4,4,2,5,2,3,3,2,2,2,0,1,0,0,0,0,0,4,3,3,4,2,5,1,3,1, ,1, , , , , , ,5, ,1, , ,1,1, , ,1,1, , , ,3,3,2,1,2,2,1,1,1,2,2,2,2,4,4,4,1,1,1,1,2,2,4,2,4,3,1,2,4,3,3,1,1,2,3,1,3,1, ,1,1,0,0,0,0,0,0,1,4,5,3,4,4,6,1, ,7,2,2, ,2, , , ,1,0, , , , 
976,1,3,1,1, , , , ,1,1, , , , ,6,5,4,4,4,3,2,2,2,2,3,0,0,0,0,1,0,8,3,3,3,3,3,3,3,3, , ,1, ,1, , , , ,4, ,1, , , , , , , , , ,1, ,3,3,2,0,1,0,0,2,1,1,2,0,1,3,3,2,2,3,3,2,2,2,3,3,3,3,3,3,3,3,3,3,3,3,2,3,3,4, ,1,1,0,0,0,0,0,0,3,3,3,3,3,3,2,2, ,7,4,2, ,1, ,1, , ,0, , , , 
977,1,3,1,1, ,1, , , , , , , , ,6,5,4,4,4,4,4,4,1,2,1,0,1,0,0,0,1,10,4,1,1,4,2,1,3,3, , , , , , , ,1, ,8, , , , , , , , , , , ,1, ,1,3,3,1,3,1,1,2,2,1,2,2,2,3,4,4,4,4,4,2,3,3,4,2,3,2,3,3,4,3,4,4,2,4,3,4,3,4, ,0,1,0,1,0,0,0,0,4,4,5,5,5,5,4,2, ,8,2,2, ,1, , , , ,1,1, , , 
981,1,4,1,1,1,1,1, , , , , , , ,5,5,2,4,5,1,2,2,3,3,3,0,0,0,0,0,1,11,5,1,3,4,3,3,1,2,1, , , , ,1, , , ,8, ,1,1, ,1, , , , , , , , ,1,3,1,0,1,0,2,2,0,1,1,0,0,1,1,1,1,1,1,1,2,1,3,4,4,4,1,3,3,3,3,2,2,4,1,4,1,1, ,1,1,0,0,0,1,0,0,4,2,3,3,2,2,6,1, ,7,1,2, ,2, , , ,1,0, , , , 
982,1,3,1,1, , , , , ,1, , , , ,4,4,2,3,4,4,2,1,2,2,3,0,0,0,0,0,1,9,4,1,4,5,1,2,3,4, , , , , ,1, , , ,8, ,1, , , , , , ,1, , , , ,2,1,1,0,2,0,1,1,0,0,0,1,1,3,2,2,3,3,3,2,2,2,2,4,3,4,1,3,2,4,3,4,2,4,3,4,4,1, ,1,1,0,0,0,0,0,0,3,4,4,4,2,3,3,1, ,7,2,2, ,1, , , ,1,0, , , , 
983,1,3,1,1,1,1, , , , , , , , ,4,5,5,3,5,1,1,1,3,3,3,0,0,0,0,0,1,10,4,3,2,5,4,5,1,1,1, ,1, , , , , , ,8, ,1,1,1,1, ,1, , , , , , ,2,2,1,0,0,0,0,1,0,0,0,0,0,3,4,4,3,3,3,1,2,1,3,4,4,3,5,4,4,5,3,5,5,4,2,4,2,1, ,1,1,0,0,0,0,0,0,4,3,3,3,3,5,2,2, ,7,1,2, ,1, , , , ,0, , ,1,American
986,1,3,1,1,1,1, , , , , , , , ,4,5,4,3,4,2,2,2,2,2,1,1,0,0,1,0,0,11,4,2,3,3,1,4,3,2,1, ,1, , , , , , ,8, ,1, , , , ,1, , , , , , ,1,4, ,0,3,0,2,1,1, ,0,0,2,3,2,3,2,2,1,1,1,1, , , , , , , , , , , ,4,3,4,3,1, ,1,0,0,1,0,0,0,0,4,3, , , , ,5,1, ,7,2,2, ,2, , , , ,0, ,1, , 
988,1,3,1,1, ,1, , ,1, , , , , ,5,3,3,3,3,3,3,3,3,3,3,0,0,0,0,0,1,8,3,3,3,3,3,3,3,3, , , , , , , ,1, ,8, , , , , , , , ,1, , , , , , , , , , , , , , , , , , , , , , , , , , , , , , , , , , , , , , , , , , , ,999,999,999,999,999,999,999,999, , , , , , , ,1, ,8,4,2, ,2, ,1, , ,0, , , , 
990,1,3,1,1, ,1,1, , , , , , , ,6,5,4,3,2,4,1,2,2,2,2,0,0,0,0,0,1,12,3,3,3,3,3,3,3,3, , ,1, , ,1, , , ,8, , ,1, , , , , , , , , , ,2,2,1,0,0,0,0,3,0,0,3,0,0,1,1,1,1,1,1,1,1,1,3,3,3,3,3,3,3,3,3,3,3,2,2,2,2,1, ,0,0,0,0,0,0,0,1,3,3,3,3,3,3,6,1, ,8,4, , ,2, , , , ,1, , ,1, 
991,1,3,1,1,1, , , , , , , , , ,4,4,3,4,5,4,4,2,3,3,3,0,0,0,0,0,1,11,1,1,2,1,1,3,3,1, , , , , ,1, , , ,8, ,1,1,1,1,1,1,1,1, , , , ,2,2,1,3,2,0,3,0,0,0,2,3,0,1,3,1,1,1,1,3,1,3,1,2,2,3,1,2,3,3,2,2,1,3,1,2,3,1, ,1,0,1,0,0,0,1,0,4,3,3,3,4,1,6,2, ,10,1,2, ,2, ,1, , ,0, , , , 
993,1,3,2,1,1, ,1, , , , , , , ,4,5,5,4,5,1,1,2,2,3,2,0,1,1,0,1,0,10,5,4,1,3,1,4,4,1,1, , , , , , , , ,8,1, , , , , , , , , , , , , , , ,1,1,0,2, , ,1,1,1,0,4,3,3,2,2,2,2,1,1, ,4,4,3,1,3,1,4,3,3,2,3,3,4,3,1, ,0,0,0,0,0,0,0,1,4,4,4,3,2,2,4,2, ,7,4,2, ,1, , , , ,1, , ,1,Hispanic and American
994,1,3,1,1,1, , ,1, , , , , , ,6,4,5,4,5,1,1,2,3,3,2,0,0,0,0,0,1,9,4,3,3,4,2,4,1,2,1, ,1, ,1,1, , , ,3, ,1, , , ,1, , , , , , , ,1,5,2,0,1,0,2,2,0,2,2,1,1,3,2,4,2,2,1,1,2,2,3,3,3,3,1,3,3,3,3,1,1,4,1,4,1,4, ,1,0,0,0,0,0,0,0,3,3,3,3,3,4,2,2, ,7,1,2, ,1, , , , ,0,1, , , 
1002,1,3,1,1,1,1, ,1, , ,1, , , ,4,4,4,3,5,3,3,4,3,3,3,0,0,0,0,0,1,9,5,1,2,3,5,3,4,3, , , , , , , ,1, ,8, ,1,1,1,1, , , , , , , , ,2,3,1,0,0,0,0,0,0,0,0,0,0,3,3,3,3,3,2,1,1,1,5,5,4,5,5,4,5,4,4,5,4,4,2,3,3,1, ,1,0,0,0,0,0,0,0,5,3,2,3,3,3,2,2, ,7,1,2, ,1, ,1, , ,0, , , , 
1003,1,3,1,1,1,1,1, , , , , , , ,4,4,3,3,4,1,2,1,2,2,2,1,0,0,0,0,0,11,3,1,2,4,3,3,1,3,1, ,1, , ,1, , , ,8, , ,1, ,1, , , , , , , , ,1,1,2,0,1,0,2,2,1,1,1,0,0,2,3,3,2,2,2,2,2,2,3,2,3,2,3,3,3,3,3,4,3,4,1,3,4,3, ,0,0,0,0,0,0,0,1,4,2,3,3,3,3,2,1, ,7,2,1,yes i am a student that needs (IEP) I would need help during the day special addistance.,1, , , , ,0, , ,1, 
1004,1,2,1, , , , , , , , , ,1, ,2,5,5,4,4,4,4,1, , , ,999,999,999,999,999,999, , , , , , , , , , , , , , , , , , , , , , , , , , , , , , , , , , , , , , , , , , , , , , , , , , , , , , , , , , , , , , , , , , , , , , , ,999,999,999,999,999,999,999,999, , , , , , , ,1, ,10,6,2, , , ,1,1, , , , , , 
1007,1,3,1,1,1,1, , , , , , , , ,5,4,5,3,5,2,2,1,3,2,2,0,0,0,0,0,1,12,3,1,2,4,1,2,4,2,1,1,1, ,1,1, , , ,3, ,1,1, ,1,1, , ,1, , , , ,1,4,1,0,1,0,1,2,0,0,1,0,1,3,3,2,2,2,2,2,1,2,1,4,4,1,1,3,4,4,3,1,1,4,2,3,2,1, ,1,0,0,1,0,0,0,0,4,3,4,4,2,4,2,1, ,7,2,2, ,2, , , ,1,0, , , , 
1008,1,3,1,1,1, ,1, , , , , , , ,3,5,4,3,5,1,1,1,3,2,2,0,0,0,0,0,1,10,4,5,2,5,5,5,2,3,1, ,1, , ,1, , , ,3, ,1,1,1,1, , , ,1,1, , , , , , , , , , , , , , , , , , , , , , , , , , , , , , , , , , , , , , , , , , ,999,999,999,999,999,999,999,999,1,1,1,1,1, ,2,1, ,7,2, , ,1, , , , ,0, ,1, , 
1009,1,3,1,1,1, , , ,1, , , , , ,4,5,5,5,5,2,2,1,3,3,3,0,1,0,0,0,0,11,5,1,1,5,3,5,4,2,1, ,1, , ,1, , , ,5,1, , , , , , , , , , , , ,3,4,1,0,0,0,3,0,0,0,0,0,0,1,1,1,1,1,1,1,1,1,3,4,4,5,1,4,3,4,4,1,3,5,1,5,1,1, ,0,1,0,1,0,0,0,0,3,2,2,2,2,2,1,1, ,9,2,2, ,2, ,1, , ,0, , , , 
1011,1,1,1,1,1, , , , , , , , , ,2,5,4,5,5,2,3,1,2,2,2,0,1,0,0,1,0,12,5,1,1,2,4,5,4,1, , ,1, , , , , , ,8, , , , , , , , , , , ,1,myself,1,3,2,0,0,0,0,3,0,0,0,0,0,2,2,2,1,2,2,1,1,1,2,3,2,2,3,5,2,3,2,2,5,5,2,5,1,1, ,0,1,0,0,0,0,0,0,3,3,3,3,3,3,1,1, ,7,2,1, ,1, ,1, ,1,0, , , , 
1012,1,3,1,1,1, , , ,1, , , , , ,5,5,5,5,5, ,2,1,3,3,3,0,0,0,0,0,1,11,3,1,1,4,2,4,1,3,1, ,1, , ,1, , , ,3, ,1, , ,1, , , ,1, , , , ,2,4,1,0,0,0,0,3,0,2,1,0,0,3,2,3,1,1,1,1,1,1,4,3,4,4,1,3,4,1,2,1,1,1,2,3,1,1, ,0,1,0,0,0,0,0,0,4,2,2,3,2,4,5,2, ,7,1,2, ,1, , , ,1,0, , , , 
1018,1,4,1,1,1, ,1,1, , , , , , ,4,5,5,4,5,3,2,2,3,3,3,0,0,0,0,0,1,11,3,2,3,4,2,2,2,1,1, , , , ,1, , , ,3, ,1,1, ,1,1,1, , , , , , ,1,3,2,0,0,0,1,2,0,0,1,0,0,2,2,2,1,1,1,1,1,1,3,4,4,4,1,4,4,4,4,1,1,4,1,1,1,1, ,1,1,0,0,0,0,0,0,4,3,2,4,1,3,4,1, ,7,1,2, ,1, , , ,1,0, , , , 
1020,1,3,1, ,1, , ,1, , , , , , ,6,5,4,3,4,4,4,1,2,3,2,0,1,0,0,0,0,14,3,2,3,4,3,4,1,1, , ,1, ,1,1, , , ,8, , , , , , , , , , , ,1,experience, , , , , , , , , , , , , , , , , , , , , , , , , , , , , , , , , , , , , , , ,0,0,0,0,0,0,0,1,2,3,5,3,1,3,6,1, ,9,4,1, cant pay attention vary well,2, , ,1, ,1, , , , 
1021,1,3,1,1,1, , , ,1, , , , , ,4,3,4,4,5,5,2,1,3,2,1,0,0,0,0,0,1,11,3,1,2,3,1,3,1,1,1, ,1, , , , , , ,6, ,1, ,1,1,1, , ,1, , , , ,1,1,1,3,2,1,2,3,3,1,1,3,1,4,4,3,3,3,3,3,3,3,4,1,3,5,1,5,1,3, ,1,2,2,4,2,5,3, ,1,0,0,0,0,0,0,0,2,4,4,1,1,2,3,1, ,8,2,1,I go to a group for reading every other day,1, , , , ,1, , ,1,latino
1027,1,3,1,1, , , , , , , , , , ,6,5,3,4,5,5,5,1,3,3,3,0,0,0,0,0,1,11,4,1,3,5,1,5,1,1, , ,1, ,1, , , , ,8, , , , , , , , , , , ,1,myself,1,3,3,0,0,0,0,2,0,0,2,0,1,4,2,4,1,1,1,1,1,1,4,3,4,5,5,5,1,4,1,1,1,4,1,3,5,1, ,1,0,0,0,0,0,0,0,3,1,1,1,2,1,6,1, ,8,2,2, ,2, ,1, ,1,0, , , , 
1029,1,4,4,1,1, , ,1,1, , , , , ,4,4,3,2,2,2,2,1,2,2,3,0,0,0,0,0,1,9,2,1,2,1,1,1,4,5, , , , , , , ,1, ,8,1, , , , , , , , , , , , , , , ,0,0,0,0,1,2,1,1, ,0,3,3,4,1,1,1,1,1,1,3,3,3,1,1,4,1,1,1,1,1,1,4,1,3,1, ,0,0,0,0,0,0,0,1,1,1,1,1,1,1,6,2, ,10,4,2, ,1, ,1, , ,0, , , , 
1031,1,3,1,1,1, ,1, , , , , , , ,3,4,3,3,5,1,2,3,3,2,2,0,0,0,0,0,1,11,4,3,2,5,3,5,3,1,1, ,1, , ,1, , , ,4, , ,1, ,1, , , , , , , , ,2,2,1,0,2,2,2,3,2,1,2,2,1,4,4,4,4,4,3,3,3,3,3,3,4,2,1,4,4,1,4,2,4,2,4,2,5,1, ,1,1,0,0,0,0,0,0,4,4,4,4,3,5,5,2, ,7,1,2, ,1, , , ,1,0, , , , 
1033,1,3,1,1,1,1, , ,1, , , , , ,4,5,4,4,5,2,2,2,3,3,2,0,0,0,0,0,1,10,4,1,2,3,2,2,3,3,1, ,1, , , , , , ,8, , ,1, ,1, , , , , , , , ,3,3,2,0,0,0,0,1,0,0,0,0,0,3,2,2,2,2,2,1,1,1,3,3,4,5,2,4,4,3,2,3,3,5,2,5,1,1, ,0,1,0,0,0,0,0,0,4,4,3,3,3,5,4,2, ,7,1,2, ,2, , , , ,0, , ,1,Irish
1038,1,3,1,1, , ,1,1, , , , , , ,3,4,3,2,5,3,3,2,2,2,2,0,0,1,1,0,0,11,4,1,3,2,1,1,2,3, , , , , ,1, , , ,8,1, ,1,1, , , , , , , , , ,1,1,4,2,3,1,2,3,2,0,0,0,0,2,2,3,1,1,1,1,1,1,4,1,3,5,1,4,1,4,2,3,1,4,2,2,3,1, ,1,0,0,0,0,0,0,0,3,3,3,3,3,3,6,2, ,7,4,2, ,2, ,1, , ,0, , , , 
1039,1,3,1,1,1, , , , , , , , , ,4,4,5,4,5,2,2,1,1,1,2,0,1,0,0,0,0,13,4,3,1,4,4,4,1,3,1, ,1, , ,1, , , ,7, , , , ,1, , , , , , , , ,1,1,2,1,1,1,0,3,0,0,1,0,0,4,4,3,1,1,1,2,2,1,3,3,4,3,1,4,1,2,2,1,1,4,3,3,3,3, ,1,1,0,0,0,0,0,0,4,2,2,2,2,5,2,2, ,7,1,1,I'm allowed to take breaks.,1, , , ,1,0, , , , 
1040,1,3,1, ,1, ,1, , , , , , , ,4,4,5,3,5,1,1,1,2,2,1,0,0,0,0,1,1,12,4,1,3,3,2,3,2,2,1, , , , , , , , ,8, , ,1, ,1, , , ,1, , , , ,3,2,2,0,2,1,2,1,1,0,1,1,2,4,3,4,2,3,3,1,2,2,4,2,2,4,1,3,1,3,2,1,1,3,3,3,3,1, ,1,1,0,0,1,0,0,0,3,4,4,2,3,2,2,2, ,7,2,2, ,2, , , ,1,0, , , , 
1041,1,1,1,1,1, , ,1,1, , , , , ,4,5,2,2,4,5,4,3,2,3,2,1,0,0,0,0,0,9,1,3,2,4,4,3,4,4, , , , , , , ,1, ,8,1, , , ,1, , ,1,1, , , , ,5,5,3,1,2,1,2,1, ,2,1,1,3,3,2,3,3,2,4,2,3,1,1,5,5,5,5,5,5,5,5,5,5,4,4,3,2,4, ,0,1,0,0,0,0,0,0,3,2,5,4,2,1,1,1, ,7,4,2, ,1, , , ,1,0, , , , 
1045,1,5,1,1,1, ,1, , , , , , , ,5,5,5,4,5,1,1,1,3,3,2,0,0,0,0,0,1,11,1,1,2,4,1,3,3,2,1, , , , , , , , ,8, , ,1, ,1, , , , , , , , ,1,2,1,0,0,0,3,0,0,0,0,0,0,1,1,1,1,1,1,1,1,1,2,3,3,1,1,4,4,4,4,1,1,5,1,5,1,1, ,1,1,0,0,0,0,0,0,4,5,4,1,1,5,2,1, ,7,2,2, ,1, , , ,1,0, , , , 
1046,1,3,6,1,1, , , ,1, , , , , ,4,5,5,5,5,1,1,1,3,3,3,1,0,0,0,0,0,13,5,2,1,5,1,3,3,3,1, ,1, , ,1, , , ,3, ,1,1,1,1,1, , , , , , , ,2,4,1,1,0,0,2,0,1,0,1,0,0,3,2,3,1,1,1,2,2,2,2,4,4,5,1,2,3,2,3,2,5,3,2,3,3,1, ,1,1,0,1,1,0,0,0,4,4,3,4,3,2,1,1, ,10,1,2, ,2,1, , , ,0, , , , 
1049,1,2,1,1,1,1, , , , , , , , ,2,4,2,3,5,2,2,1,2,2,2,0,0,0,0,0,1,11,4,2,1,5,2,5,3,3,1, ,1, , , , , , ,8, ,1, , ,1,1, , ,1,1, , , ,1,2,1,1,2,0,0,2,1,1,1,1,1,4,2,4,2,2,1,1,1,1,4,2,5,2,1,4,4,2,2,3,4,4,2,4,2,1, ,1,0,0,1,0,0,0,1,5,4,4,4,4,5,2,2, ,10,2,2, ,2, , , ,1,0, , , , 
1050,1,5,3,1,1, , , , , , , , , ,1,4,3,4,5,2,1,1,2,1,2,1,0,0,0,0,0,8,5,1,3,5,1,5,5,5, , , , , , , ,1, ,8, , , , ,1, , , ,1, ,1, , ,3,4,1,2,3,0,1,0,0,2,1,2,1,4,4,4,1,1,1,1,3,3,4,4,4,5,1,4,4,4,4,4,1,3,1,4,2,2, ,1,0,0,0,0,0,0,0,3,3,4,4,3,4,2,2, ,7,3,2, ,1, , , , ,0,1, , , 
1051,1,3,1,1,1,1, , , , , , , , ,4,5,5,5,5,2,1,1,3,3,3,0,0,0,0,0,1,9,4,3,1,5,3,5,2,5, , ,1, , , , , , ,8, ,1,1,1,1, , , , ,1, , , ,2,2,1,0,0,0,1,1,0,1,0,0,0,3,1,1,1,1,1,1,1,1,3,3,3,3,1,3,2,3,3,1,3,5,1,4,1,1, ,1,0,0,0,0,0,0,0,5,2,2,4,1,1,1,2, ,7,2,2, ,2, , , ,1,0, , , , 
1056,1,4,1,1,1,1,1, ,1,1, , , , ,5,5,5,4,5,2,2,1,3,3,3,0,0,0,0,0,1,10,4,2,3,3,1,3,2,3,1, ,1, ,1,1, , , ,3, ,1,1, ,1, , , ,1, , , , , , , ,2,2,3,2,1,3,2,3,3,3,2,2,2,1,1,1,1,2,1, , , , , , , , , , , , , , , , , ,0,0,1,0,0,0,0,0,3,3,2,2,2,2,2,1, ,7,1,2, ,1, , , ,1,0, , , , 
1058,1,3,2, ,1, , , , , ,1,1, , ,6,4,3,5,5,2,1,4,2,2,3,0,1,0,0,0,1,12,5,5,5,5,5,5,5,5,1, ,1,1,1,1, , , ,2,1, , , , , , , , , , , , ,1,1,1,0,0,0,0,3,0,0,3,0,0,4,4,4,4,4,4,2,1,1,1,4,3,1,1,4,4,3,4,1,1,5,1,1,1,1, ,0,0,0,0,0,0,0,1,1,1,1,1,1,1,1,1, ,7,4,2, ,2, , , , ,1,1, , , 
1059,1,3,8,1,1, , , ,1, , , , , ,4,4,4,4,5,2,2,1,2,3,2,0,1,0,0,0,0,10,4,1,3,3,5,5,2,1,1, ,1, , ,1, , , ,4, ,1, , ,1,1, , , , , , , , , , ,0,1, ,1,2,1,1,1,0,0,1,3,3,2,2,1,1,1,2,2,3,2,1,1,1,1,1,3,1,3,2,1,2,2,1, ,0,1,0,0,0,0,0,0,2,4,4,4,2,3,2,2, ,9,2,2, ,2, , , ,1,0, , , , 
1064,1,4,3,1,1, , , , , , , , , ,2,4,3,2,4,1,1,1,3,3,3,0,0,0,0,0,1,10,3,2,1,5,1,5,2,1,1, , , , , , , , ,5, ,1,1,1, , , , , , , , , ,1,1,1,2,2,1,1,1,1,0,1,1,1,3,3,2,2,2,2,2,2,2,4,4,4,5,1,3,3,1,4,1,1,3,3,3,3,1, ,1,1,0,0,0,0,0,0,5,3,3,4,4,3,5,2, ,10,2,2, ,2, , , , ,0,1, , , 
1065,1,3,1,1,1, , , ,1, , , , , ,6,5,4,5,5,5,4,4,2,3,3,0,1,0,0,0,0,12,5,5,1,5,5,5,5,1,1,1,1,1,1,1, , , ,1, ,1, , , , , , , , , , , , , , ,0,0,0,0,0,0,0,0,0,0,3,3,4,1,1,1,1,1,2,3,4,2,1,1,3,1,2,2,1,1,5,1,5,1,1, ,1,0,0,0,0,0,0,0,4,1,4,1,1,1,1,1, ,7,1,1,I think I have IEP,1, , , , ,1, , ,1,I don't remember
1067,1,3,1,1, ,1, , , , , , , , ,4,4,2,3,5,2,1,1,3,3,3,0,0,0,0,0,1,10,5,1,2,4,1,3,5,1, , ,1, , , , , , ,7, , ,1, , , , , ,1, , , , ,1,3,2,0,0,0,0,0, ,0,0,0,0,4,1,2,1,1,1,1,1,1,4,4,4,4,1,4,4,4,4,1,1,4,3,3,1,1, ,1,0,0,0,0,0,0,0,5,3,1,2,2,4,6,1, ,7,4,2, ,2, , , , ,0, , ,1,cave verdan
1068,1,3,1,1,1, ,1, , , , , , , ,4,4,4,4,5,1,1,1,3,3,2,0,0,0,0,0,1,10,4,1,1,5,1,5,1,1,1,1,1, ,1, , , , ,3, ,1,1, ,1,1,1, , , , , , ,1,3,1,0,0,0,1,2,0,0,1,0,0,1,1,2,1,1,1,1,1,1,3,3,3,3,1,3,3,3,4,1,1,5,1,4,1,1, ,1,1,1,1,0,0,0,0,4,3,2,5,2,4,1,1, ,7,1,2, ,1, , ,1,1,0, , ,1,"Irish,Italian"
1071,1,3,2,1,1, , , ,1, , , , , ,2,5,3,3,4, ,4,2,2,2,3,0,0,0,0,0,1,12,4,1,3,1,1,1,3,1, , , , , ,1, , , ,8, , , , , ,1, , , , , , , ,2,2,2,0,2,0,0,0,0,1,1,0,0,4,4,3,4,4,4,2,1,1,4,4,3,4,1,1,1,4,3,1,1,4,5,2,5,4, ,1,0,0,0,0,1,0,0,4,2,2,2,2,4,2,1, ,7,2,2, ,2, , , , ,1,1, , , 
1073,1,4,1,1, ,1, , , , , , , , ,6,5,5,2,5,1,1,1,2,3,1,1,0,0,0,1,0,11,3,5,5,2,3,3,1,2, , ,1, ,1,1, , , ,8, ,1,1, ,1, , , ,1, , , , ,2,2,2,1,3,1,1,2,0,2,3,3,2,4,4,4,4,3,2,3,3,2,4,4,4,4,3,4,1,3,2,4,2,2,4,2,5,4, ,1,0,0,0,0,0,0,0,3,2,1,3,5,1,6,2, ,7,4,2, ,2, , , ,1,0, , , , 
1080,1,3,1,1,1, , ,1, , , , , , ,3,5,5,5,5, ,2,3,1,1,1,0,0,0,0,0,1,9,4,1,5,5,3,3,5,3,1, ,1, , ,1, , , ,3, , ,1, ,1, , , ,1, , , , ,2,1,1,0,0,0,0,3,0,1,0,0,0,2,1,1,1,3,1,1,2,1,2,4,3,5,1,4,3,3,3,3,2,2,3,4,5,1, ,0,0,0,0,0,0,0,1,4,4,4,5,3,5,2,2, ,7,2,2, ,1, ,1, , ,0, , , , 
1081,1,3,1,1,1, , , ,1, , , , , ,5,5,5,5,5,1,2,2,3,3,3,0,0,0,0,0,1,12,5,5,1,5,5,3,1,1,1, , , , , , , , ,3, ,1, , , , , , , , , , , , , , ,0,1,0,0,0,0,2,0,0,0,3,3,3,1,1,1,1,1,1,3,2,2,5,1,4,4,5,4,1,1,4,3,4,4,1, ,1,1,0,0,0,0,0,0,5,3,2,2,2,4,3,2, ,7,1,2, ,1,1, , , ,0, , , , 
1082,1,3,1,1,1,1,1, ,1,1, , , , ,5,4,5,3,5,1,4,3,2,3,3,0,0,0,0,0,1,11,3,1,2,4,3,4,1,2,1, , , , , , , , ,8, ,1,1,1,1,1,1, , , , , , , , , ,1,2,1,1,1,1,1,0,1,1,3,2,1,1,1,1,1,1,2,3,2,3,4,1,3,3,2,4,3,1,3,3,3,3,1, ,1,1,0,1,0,1,0,0,4,1,4,2,4,5,4,2, ,8,1,2, ,1, , , ,1,0, , , , 
1083,1,2,1,1,1,1, , , , , , , , ,5,3,3,2,4,2,2,2,2,3,2,0,0,0,0,0,1,13,3,1,2,3,2,4,3,1,1, , , , , , , , ,8, , ,1, , , , , , , , , , ,1,3,1,0,3,0,2,2,2,2,1,2,2,3,1,3,4,3,3,2,1,2,4,3,4,4,2,4,3,2,3,2,2,3,4,3,4,1, ,1,0,0,0,0,0,0,0,4,4,4,4,5,4,5,2, ,10,1,2, ,2, , , ,1,0, , , , 
1086,1,3,3, ,1, ,1, , , , , , , ,6,4,2,3,5,4,2,1,2,2,2,0,1,1,1,0,0,10,4,4,4,2,2,3,2,1, , ,1, ,1,1, , , ,3, ,1,1,1,1,1, , ,1,1, , , ,3,2,1,1,2,1,2,1,1,0,1,0,0,4,4,2,2,1,1,2,2,1,4,4,4,4,1,4,3,4,3,2,3,3,2,2,2,5, ,1,0,0,0,0,1,0,0,4,4,4,3,2,3,3,1, ,7,5,2, ,1, , ,1, ,0,1, , , 
1087,1,4,1,1,1, , , , , , , , , ,4,4,1,3,5,5,4,1,2,2,2,0,1,0,0,1,0,8,4,1,2,1,2,3,4,4, , , , , ,1, , , ,8, , , , , , , , , ,1, , , ,3,1,1,1,1,0,0,2,0,0,0,0,0,3,2,1,3,1,1,1,2,1,2,4,2,3,1,4,1,4,3,2,1,4,1,4,3,4, ,0,0,0,0,1,0,0,0,4,5,2,2,1,3,6,1, ,7,2,1,I have social group every week,1, , , ,1,0, , , , 
1088,1,3,1,1,1, ,1, , , , , , , ,4,4,4,3,5,2,2,2,3,3,2,0,0,0,0,0,1,11,5,1,2,2,3, ,2,4,1, , , , , , , , ,8, , ,1, ,1, , , , , , , , , , , , , , , , , , , , , , , , , , , , , , , , , , , , , , , , , , , , , , , ,999,999,999,999,999,999,999,999, , , , , , , ,1, ,8,3,1,academic support,1, , , ,1,0, , , , 
1089,1,3,1,1,1, , , , , , , ,1,cat,3,5,5,3,5,1,1,1,2,3,3,0,0,0,0,1,0,9,1,1,1,1,1,5,5,3,1,1,1, , ,1, , , ,8, , , , ,1, , , , , , , , ,2,2,1,0,3,0,2,0,0,0,0,0,0,1,3,1,1,1,1,1,1,2,3,5,5,5,1,5,1,5,3,1,1,2,3,1,5,1, ,1,0,0,0,0,0,1,0,5,1,3,1,1,4,6,1, ,7,4,2, ,2, , , , ,0, , ,1,english Irish black white african american
1091,1,2,1,1,1,1, , ,1, , , ,1,Twin sister,4,4,4,5,5,2,2,3,3,3,2,0,0,0,0,0,1,11,4,5,3,4,2,4,1,1, , ,1, , ,1, , , ,4, , , , ,1, , , , , , , , ,1,2,1,0,1,0,0,2,0,0,0,0,0,3,3,3,2,2,2,1,1,1,3,4,4,5,1,4,4,4,4,1,4,4,1,4,3,1, ,0,0,0,1,0,0,0,0,5,3,3,3,3,3,5,2, ,8,2,2, ,1, , , , ,0, ,1, , 
1093,1,5,1,1,1,1, , , , , , , , ,5,5,3,3,5,2,4,3,2,3,2,0,1,0,0,1,0,9,5,2,2,5,1,5,2,1,1,1,1, , ,1, , , ,4, ,1, , , ,1, , , , , , , ,1,3,2,0,1,0,1,1,1,0,1,0,0,2,3,3,1,1,1,1,2,2,4,2,2,5,1,4,1,4,3,1,1,5,1,3,1,4, ,1,0,0,1,0,0,0,0,2,2,2,3,1,3,4,2, ,7,1,2, ,1, , , ,1,0, , , , 
1094,1,2,1,1,1,1, , ,1, , , , , ,4,4,4,4,5,2,2,3,3,2,2,0,0,0,0,0,1,11,5,5,3,4,5,4,1,1,1, , , , ,1, , , ,5, ,1, , , ,1, , , , , , , ,1,3,3,0,1,0,2,0,0,0,1,1,1,3,3,2,3,1,1,2,2,2,3,3,3,5,1,4,2,4,2,1,3,3,1,3,2,1, ,1,1,0,1,0,0,0,0,4,3,4,3,3,4,1,2, ,8,2,2, ,1, , , ,1,0, ,1, , 
1096,1,4,6,1,1,1, ,1, , , , , , ,4,5,4,5,5,2,2,1,3,3,3,0,1,0,0,0,1,11,5,3,2,5,3,5,3,3,1, ,1, , ,1, , , ,4, ,1,1, ,1,1, , ,1,1, , , ,2,4,1,0,1,0,2,1,2,0,0,0,1,3,3,3,2,2,2,1,1,1,3,4,3,5,5,3,2,2,2,1,2,4,2,4,2,1, ,1,0,0,0,0,0,0,0,4,4,1,4,1,2,2,2, ,7,1,2, ,2, , , ,1,0,1, , , 
1098,1,2,1,1,1,1, , , , , , ,1,dogs,3,5,5,5,5,2,1,1,2,3,2,0,1,0,0,0,0,8,3,1,2,5,1,3,4,3,1, ,1, , , , , , ,8, ,1, , , , , , , , , , , ,2,3, ,0,3,0,2,3,3,0,0,0,1,2,3,2,3,3,3,1,2,3,4,4,1,3,3,4,1,5,3, ,3,3,1,4,1,4, ,1,0,0,0,0,0,1,0,5,5,5,5,5,5,6,1, ,7,4,1,i dont know everythng that i should know,2, , , ,1,0, , , , 
1099,1,3,1,1,1,1, ,1, , , , , , ,4,2,4,4,5,2,1,1,2,2,3,0,1,0,0,1,0,11,3,1,3,5,3,5,3,3,1, ,1, , ,1, , , ,8, , ,1, , , , , , , , , , , , , , , , , , , , , , , , , , , , , , , , , , , , , , , , , , , , , , , , , ,999,999,999,999,999,999,999,999, , , , , , , ,1, ,7,3,2, ,2, , , ,1,0, , , , 
1101,1,4,1,1,1,1, , , , , , , , ,5,4,4,3,4,2,2,1,3,3,3,0,0,0,0,0,1,12,4,1,1,3,2,2,4,2, , , , , , , ,1, ,8, , ,1, ,1,1, , , , , , , ,1,3,1,0,0,0,0,1,0,0,1,0,0,3,3,2,2,2,2,1,1,1,2,4,4,4,2,3,4,4,3,2,2,4,2,4,2,1, ,1,1,0,1,0,0,0,0,4,3,2,2,2,3,4,1, ,10,1,2, ,2, , , ,1,0, , , , 
1102,1,2,1,1,1, , ,1,1, , , , , ,5,3,4,4,3,2,3,2,3,3,2,0,0,0,0,0,1,8,2,1,3,5,1,2,3,2,1, ,1, , ,1, , , ,8, ,1, ,1,1,1, , , , , , , ,3,3,2,0,3,3,1,0,1,3,1,3,1,1,2,2,1,1,1,3,2,2,2,3,4,5,1,4,4,4,4,2,3,3,2,2,3,1, ,1,1,0,1,1,1,0,0,4,4,4,3,4,3,1,1, ,7,2,2, ,2, , , , ,1,1, , , 
1104,1,5,1,1, ,1,1, , , , , , , ,2,5,5,5,5,5,5,2,3,2,2,0,0,0,0,0,1,8,2,2,2,3,5,3,3,2, , ,1, , , , , , ,8, , ,1, , , , , , , , , , ,1,1,1,2,2,3,2,0,2,1,1,2,3,3,2,2,3,4,4,1,1,1,1,4,4,4,4,4,4,4,4,4,4,5,3,3,5,6, ,1,0,0,0,0,0,0,0,5,5,5,5,5,5,5,1, ,7,3,2, ,1, ,1, , ,1, , , , 
1105,1,3,4,1,1, , ,1,1,1, , , , ,6,4,3,3,4,1,1,1,3,3,3,0,0,0,0,0,1,13,3,1,3,5,1,5,3,1,1, ,1, , ,1, , , ,6, , , ,1, , , , , , , , , ,3,1,1,0,0,1,3,0, ,1,0,2,0,4,4,4,3,3,3,2,2,2,4,3,4,5,1,4,1,4,4,1,1,5,3,5,1,1, ,1,0,0,0,0,1,0,0,5,5,3,5,3,3,2,2, ,8,2,2, ,2, ,1, , ,0, , , , 
1107,1,3,6,1,1, , , ,1, , , , , ,4,4,4,4,4,4,3,3,3,2,2,0,0,0,0,0,1,0,5,1,2,3,3,3,1,1, , , , , , ,1, , ,7, ,1, , , , , , , , , , , ,3,4,1,0,0,2,2,2,2,2,2,2,1,3,3,3,3,3,3,2,3,2,3,5,3,3,5,3,5,3,3,5,3,2,5,2,5,1, ,0,1,0,0,0,0,0,0,3,3,3,3,4,3,2,2, ,7,1,2, ,1,1, , , ,0, , , , 
1110,1,3,1,1,1, ,1,1,1, , , , , ,4,5,5,5,5,1,1,1,2,2,3,0,0,0,0,0,1,10,5,5,5,5,4,5,2,2,1, ,1, , ,1, , , ,7, ,1, , , , , , , , , , , , , , ,0,1,0,1,0,0,0,0,0,0,4,2,4,1,1,1,1,1,1,4,3,4,2,1,4,1,1,4,1,1,5,1,5,1,1, ,1,1,0,0,0,0,0,0,3,3,2,2,1,1,3,2, ,7,2,2, ,2, , , , ,0, , ,1,African American
1113,1,3,1,1,1, ,1, , , , , , , ,4,4,5,4,5,2,2,2,3,3,3,0,0,0,0,0,1,11,5,1,2,3,1,3,1,2, , , , , , , ,1, ,3, ,1,1, , ,1, , , , , , , ,1,3,1,0,0,0,0,2,0,0,0,0,0,1,2,1,1,1,1,1,1,1,2,4,3,4,5,3,3,3,3,5,1,4,1,3,1,4, ,0,1,0,0,0,0,0,0,2,3,1,1,1,2,6,1, ,7,1,2, ,2, , , , ,0, , ,1,dont know
1114,1,5,1,1,1, ,1, , ,1, , , , ,3,5,4,3,5,1,1,2,3,2,2,0,0,0,0,0,1,11,5,2,3,3,5,3,4,5,1, ,1, , , , , , ,5, ,1,1, ,1, , , , , , , , ,1,2,1,1,2,0,0,3,1,2,3,2,0,4,4,4,4,4,3,1,2,1,1,4,4,3,1,3,3,2,2,4,3,2,4,2,5,1, ,1,0,0,0,0,0,1,0,4,4,2,5,4,4,1,2, ,7,1,2, ,1, , , ,1,0, , , , 
1115,1,4,1,1,1,1, ,1, , , , , , ,4,4,4,4,5,1,2,1,3,2,2,0,1,0,0,0,0,11,4,2,3,3,2,2,2,2,1,1,1, ,1,1,1, ,on weekdays I get a 1 hour limit but on fridays and saturdays I get unlimited and sundays I get until 5pm,2, ,1,1, ,1,1, ,1,1, , , , ,2,2,2,0,1,0,0,1,1,0,1,0,1,4,4,4,2,2,2,2,3,2,3,4,4,4,1,2,2,4,3,1,2,4,2,3,2,1, ,1,1,0,0,0,1,0,0,4,3,2,4,2,2,4,1, ,7,1,2, ,1, , , ,1,0, , , , 
1116,1,3,2,1, , , , , ,1, , , , ,5,4,5,2,3,2,1,1,3,2,3,999,999,999,999,999,999,8,2,1,2,3,1,1,4,3, , , , , , , ,1, ,8, , , , ,1, , , , , , , , ,1,1,1,0,0,0,0,3,0,0,0,0,0,2,2,1,1,1,1,1,1,1,1,4,4,4,2,4,4,4,4,3,3,5,1,5,1,1, ,0,0,0,0,0,0,0,1,3,4,5,3,2,2,1,1, ,7,4,1, ,2, , , , ,1, , ,1, 
1117,1,3,3,1,1, , , , , , , ,1,dog,2,4,2,2,5,1,3,2,2,2,1,0,0,0,0,0,1,10,4,1,3,1,1,5,1,2, , , , , , , ,1, ,8, , , , , ,1, , , , , , , ,1,2,2,1,2,0,1,2,1,0,1,3,2,3,4,4,2,2,1,2,2,2,3,2,4,4, ,3,1,3,2,1,1,4,3,4,3,2, ,1,0,0,0,0,0,0,0,2,4,4,3,3,4,6,2, ,7,2,2, ,2, , , , ,1,1, , , 
1123,1,3,1, ,1, ,1, , , , , , , ,4,3,1,1,3,1,5,4,1,1,1,1,1,0,1,0,0,10,5,5,2,1,1,2,3,3, ,1,1, ,1,1, , , ,3,1, , , , , , , , , , , , ,2,2,2,0,0,3,0,3,0,0,0,1,0,1,1,1,1,1,1,1,1,1,3,3,3,3,3,3,3,3,3,3,3,5,1,5,5,2, ,0,0,0,0,0,0,0,1,3,3,3,3,3,3,6,3,non binary,7,1,1,i have one i don't know the details and u do know the details,1, , , , ,0, , ,1,american part german
1127,1,2,1,1,1, , , ,1, , , , , ,5,4,5,4,5,1,1,1,3,3,3,0,0,0,0,0,1,11,5,5,4,5,5, ,2,1,1, ,1, ,1,1, , , ,3, ,1, ,1, ,1, , , , , , , , , , ,0,1,0,0,0,0,0,0,0,0,3,3,3,3,3,3,1,1,2,3,3,4,4,1,3,4,1,4,1,3,4,1,4,1,1, ,1,0,0,0,0,0,0,0,5,2,4,4,3,4,1,2, ,8,2,2, ,1, , , ,1,0, , , , 
1128,1,4,1,1,1, , ,1, , , , , , ,5,4,5,5,5,1,2,1,3,3,3,0,0,0,0,0,1,11,4,1,2,4,5,3,1,1,1, ,1, , ,1, , , ,4, ,1, , ,1, , , ,1, , , , , , , ,0,2,0,1,3,1,0,1,0,1,1,2,3,1,1,1,1,2,1,1,4,4,4,3,4,4,1,4,3,4, , , , , , ,1,0,0,0,0,0,0,0,4,5,5,4,2,4,1,2, ,7,2,2, ,1, , , , ,0, , ,1, 
1130,1,3,2,1,1, , ,1,1, , , , , ,6,5,5,5,5,3,1,2,2,2,2,0,0,0,0,0,1,8,5,1,3,5,5,5,3,3,1, ,1, ,1,1, , , ,8, ,1,1, ,1, , , ,1, , , , ,2,3,1,0,1,1,0,3,0,1,2,0,0,3,3,3,2,3,2,2,2,2,3,3,3,3,1,3,3,3,3,1,1,3,1,2,2,4, ,1,1,0,0,0,1,0,0,3,4,3,3,2,3,4,1, ,7,3,2, ,1, , , , ,1,1, , , 
1133,1,4,1,1,1, , ,1, , , , , , ,4,4,4,3,5,1,1,1,2,3,3,0,0,0,0,1,0,12,5,2,2,4,1,2,4,4,1,1,1, ,1,1, , , ,8, ,1, , , , , , , , , , , ,3,4,2,0,1,3,2,3,0,0,2,2,2,4,4,1,1,1,1,1,1,2,4,1,1,1,1,3,3,4,1,1,1,5,1,5,1,1, ,0,0,0,0,0,0,0,1,2,1,1,1,3,1,1,1, ,7,2,2, ,1, , , ,1,0, , , , 
1134,1,1,1,1,1,1,1,1,1, , , , , ,5,5,5,3,4,3,3,4,3,2,3,0,1,0,0,0,0,8,3,3,3,1,4,3,5,1, , , , , ,1, , , ,8, ,1,1, ,1,1,1, ,1,1, , , ,5,5,3,0,1,1,2,2, ,2,2,3,0,2,3,4,1,3,2,2,1,2,1,1,1,3,1,2,3,5,2,3,5,2,4,3,2,1, ,0,1,0,0,0,0,0,0,3,1,2,4,3,2,2,1, ,7,5,2, ,1, , , ,1,0, , , , 
1136,1,4,7,1,1, ,1, , , , , , , ,4,4,3,3,2,3,3,2,3,3,2,0,0,0,0,0,1,10,2,1,4,2,1,1,2,3,1, ,1, , , , , , ,8, , ,1, , , ,1,1, , , , , ,1,3,2,0,1,0,1,1,0,0,1,0,1,3,2,3,1,1,1,1,3,2,4,3,1,1,1,2,3,1,4,1,1,3,2,1,2,1, ,0,0,0,0,1,1,0,0,4,3,5,3,4,5,1,1, ,9,1,1,Do well,2, , , ,1,0, , , , 
1137,1,3,1,1,1,1,1, , , , , , , ,5,3,4,2,4,4,2,1,2,2,2,0,0,0,0,0,1,8,2,3,5,2,1,4,5,4,1, ,1, , , , , , ,8, ,1,1, , , , , , , , , , ,1,5,2,2,3,2,3,2,0,1,2,2,3,4,4,4,4,3,1,2,2,3,4,2,4,3,1,2,3,4,2,1,1,3,2,3,5,1, ,0,1,0,0,0,1,0,0,5,4,4,5,5,4,5,1, ,7,2,1,PLC program,2, , ,1, ,0, , , , 
1139,1,4,1,1, , , , , ,1, , ,1,Twin brother,4,4,3,4,5,2,2,2,3,3,3,0,0,0,0,0,1,12,4,1,1,3,2,2,1,2, , , , , , , ,1, ,8, ,1, ,1, ,1, , , , , , , ,1,1,1,1,1,1,2,1,2,2,1,0,2,4,3,3,2,2,2,2,2,2,4,4,3,4,2,4,3,1,4,1,1,3,4,3,3,1, ,1,0,0,0,0,1,0,0,5,5,4,5,4,4,3,2, ,10,1,2, ,2, , , ,1,0, , , , 
1141,1,4,1,1,1, ,1, , , , , , , ,5,3,4,3,5,1,1,1,3,3,3,0,0,0,0,0,1,10,4,5,5,5,5,5,2,2,1,1, , ,1, , , , ,3, , ,1, ,1, , , , , , , , , , , ,0,2,0,1,1,1,0,1,1,1,2,2,3,2,2,2,1,2,1,2,3,3,1,1,3,2,1,1,1,3,3,3,3,3,1, ,1,1,0,0,0,0,1,0,4,3,2,4,2,4,5,2, ,7,1,2, ,1,1, , , ,0, , , , 
1144,1,3,1,1,1,1, , , , , , , , ,5,4,3,3,4,4,4,3,2,3,2,0,1,0,0,0,0,11,3,1,1,5,2,5,2,4, , ,1, ,1, , , , ,7, , ,1, ,1, , , , , , , , ,1,3,2,1,0,0,1,2,2,1,1,1,1,3,2,2,1,1,1,1,1,2,4,4,4,2,1,3,4,4,5,2,2,4,2,4,1,3, ,1,0,0,0,0,0,0,0,4,4,3,3,3,4,2,2, ,7,3,2, ,1, ,1, , ,0, , , , 
1146,1,3,1, ,1, , , , , , , , , ,5,3,1,2,3,1,1,1,1,3,2,0,0,0,0,0,1,10,3,1,2,1,1,3,4,1, , , , , , , ,1, ,8, , ,1, ,1, , , ,1,1, , , , , , ,3,3,2,3,1,2,3,1,2,1,4,4,4,4,4,4,2,3,3,4,2,4,4,2,4,2,2,4,2,2,3,5,2,5,1, ,1,0,0,1,0,0,0,0,4,4,4,4,4,4,6,2, ,10,3,2, ,2, ,1, , ,0, , , , 
1147,1,3,1,1,1, ,1, , , , , , , ,5,5,4,4,5,3,3,2,3,3,2,0,0,0,0,0,1,10,4,3,3,5,4,5,2,3, , ,1, , ,1, , , ,7, , ,1, ,1, , , ,1, , , , ,3,3,1,0,1,0,0,2,0,0,0,0,0,3,1,3,3,3,3,1,2,1,3,4,4,5,1,4,4,3,4,3,2,3,4,3,3,1, ,1,1,0,0,0,0,0,0,3,2,3,4,2,3,2,2, ,7,1,2, ,1, , , ,1,0, , , , 
1148,1,3,1,1,1, , , ,1, , , , , ,5,5,4,5,5,1,2,1,3,3,3,0,0,0,0,0,1,12,4,1,1,5,5,3,1,2,1, , , , ,1, , , ,8, ,1, , , , , , , , , , , ,1,2,1,0,0,0,0,1,0,0,0,0,0,2,1,1,2,1,1,1,1,1,3,4,4,1,1,1,4,1,4,1,1,5,2,4,1,1, ,1,1,0,0,0,0,0,0,4,1,1,1,1,1,2,2, ,7,1,2, ,1, , , ,1,0, , ,1,Irish
1151,1, ,1,1,1, , , ,1, , , , , ,3,4,4,2,5,1,1,1,3,3,3,0,0,0,1,0,0, , , , , , , , , , , , , , , , , , , , , , , , , , , , , , , , , , , , , , , , , , , , , , , , , , , , , , , , , , , , , , , , , , , , , , , ,999,999,999,999,999,999,999,999, , , , , , , ,1, ,7,2,2, ,2, , , , ,1,1, , , 
1153,1,4,1,1,1, ,1, , , , , , , ,4,5,4,4,5,1,1,2,3,3,3,0,0,0,0,0,1,9,4,4,1,5,3,5,1,1,1,1,1, ,1,1,1, ,on week days i cant until 2 pm and have to stop at 9,3, ,1,1, ,1, , , , , , , , ,2,2,1,0,1,0,1,1,0,0,0,0,0,3,3,1, ,1,1,1,2,1,4,3,4,5,1,4,2,1,4,1,1,4,2,4,1,1, ,0,1,0,0,0,0,0,0,3,2,2,3,2,4,5,2, ,7,1,1,I sort of do I have dyslexia so every other day i do a special class that is supposed to help me,2, , , ,1, , , , , 
1157,1,3,1,1,1,1, , , , , , , , ,5,5,5,4,5,3,1,1,3,3,3,0,0,0,0,0,1,12,3,2,1,4,2,3,2,2,1, , , , , , , , ,5, , , , ,1, , , , , , , , ,2,3,1,0,0,0,0,3,0,0,0,0,0,1,3, ,1,1,1,1,1,1,2,2,3,1,1,3,4,1,4,1,1,3,1,1,1,4, ,1,1,0,0,0,0,0,0,3,1,3,4,1,3,5,1, ,7,1,2, ,1, , , ,1,0, , , , 
1158,1,2,1,1,1, , ,1, , , , , , ,5,3,3,2,4,1,2,3,3,3,2,0,0,0,0,0,1,11,1,1,3,4,1,2,4,2,1, , , , , , , , ,8,1, , , ,1, , , , , , , , ,2,3,3,0,2,0,1,1,1,1,1,1,3,3,3,3,2,2,1,1,2,1,4,2,3,5,2,3,4,4,3,4,1,4,2,3,3,1, ,0,1,0,1,0,1,0,0,5,5,2,3,4,5,5,1, ,7,1,2, ,1, , , ,1,0, , , , 
1159,1,2,1,1, , , ,1, ,1, , , , ,3,4,4,4,5,2,3,1,2,2,2,0,0,0,0,0,1,10,4,2,3,3,4,2,3,2,1, ,1, , , , , , ,8, ,1, ,1, ,1, , , , , , , , , , ,1,0,0,0,3,0,0,1,0,0,2,2,4,2,2,2,1,2,1,1,2,4,5,1,3,1,1,1,1,1,1,2,3,2,1, ,1,0,0,0,0,0,0,0,2,4,2,3,1,1,5,2, ,7,2,2, ,1, , , ,1,0, , , , 
1163,1,3,1,1,1, ,1,1,1, , , , , ,4,4,4,3,4,1,1,2,3,3,3,0,0,0,0,0,1,12,3,2,3,3,4,3,3,2,1, ,1, , , , , , ,4, ,1,1, ,1, , , , , , , , ,2,4,2,1,1,0,1,2,1,1,0,1,0,3,3,3,2,2,1,1,1,1,2,2,3,4,1,3,4,4,4,2,2,4,2,4,2,1, ,1,1,0,0,0,0,0,0,4,3,3,4,4,4,5,1, ,7,1,2, ,1, , , ,1,0, , , , 
1164,1,3,1,1,1, ,1,1, , , , , , ,4,5,5,5,5,1,1,2,3,3,3,0,0,0,0,0,1,0,5,2,1,5,2,3,3,4,1,1,1, , ,1, , , ,3, ,1,1, ,1, , , , , , , , , , , ,0,0,0,0,3,0,0,3,0,0,1,1,1,1,1,1,1,1,1,3,4,4,4,5,3,5,5,4,5,5,5,1,3,3,4, ,0,1,0,0,0,0,0,0,5,3,4,4,2,4,1,2, ,8,1,2, ,2,1, , , ,0, , , , 
1166,1,4,1,1,1,1, , ,1, , , , , ,4,4,5,3,4,1,1,1,3,2,2,0,0,0,0,0,1,11,3,4,1,4,1,4,3,1,1, ,1, , ,1, , , ,3, , ,1, ,1, , , , , , , , ,4,4,2,3,3,3,3,0,3,3,0,3,3,2,1,1,1,1,1,1,1,1,1,1,2,1,1,4,1,1,1,1,1, , , , , , ,0,0,1,1,0,1,1,0,5,5,5,5,5,5,3,2, ,7,1,2, ,1, , , ,1,0, , , , 
1167,1,4,1,1, , , , ,1, , , , , ,4,4,4,4,4,4,3,1,2,2,2,1,0,0,0,0,0,10,5,2,1,5,5,5,5,5, , ,1, , , , , , ,8, ,1,1, ,1, , , ,1,1, , , ,3,3,2,2,2,2,2,1,2,2,1,2,2,1,1,1,1,1,1,1,1,1,1,3,4,1,3,4,3,3,3,4,3,2,2,2,2,4, ,1,0,0,0,0,0,0,1,5,5,5,5,5,5,6,2, ,7,2,1, ,2, , , , ,1, , ,1,hispanic/west indies/jamcan/
1168,1,3,1,1,1,1, , , , , ,1, , ,5,4,5,3,5,2,2,2,3,3,3,0,1,0,0,0,0,8,3,1,1,3,1,1,3,2, , , , , , , ,1, ,8, , , , ,1,1, , ,1, , , , ,1,1,2,0,2,0,2,2,2,0,0,2,0,4,2,3,3,2,2,2,1,1,4,2,4,4,1,3,2,3,3,1,2,4,3,3,3,3, ,0,1,1,0,0,0,0,0,5,3,2,4,3,3,2,2, ,7,1,2, ,2, , , ,1,0, , , , 
1169,1,3,3,1,1, , ,1, , , , , , ,1,4,4,1,5,1,4,3,3,3,3,1,1,1,1,0,0,11,5,1,4,1,1,1,3,1,1,1,1, ,1,1, , , ,3, , , , , ,1, , , , , , , ,2,5,1,2,2,1,1,2,0,1,1,2,1,4,2,2,4,4,1,1,2,3,4,4,4,5,5,3,1,1,4,1,1,2,4,3,5,1, ,1,0,0,1,1,1,0,0,5,5,5,5,5,5,5,1, ,7,1,2, ,1, , , , ,1,1, , , 
1170,1,3,6,1,1, , ,1,1,1, , , , ,6,4,5,4,5,2,2,3,1,1,2,0,0,0,0,0,1,10,3,1,2,5,3,4,2,3,1, ,1, , ,1, , , ,5, ,1, , , ,1, , , , , , , ,1,5,2,3,1,1,1,3,2,3,3,3,3,4,4,4,3,3,2,3,2,2,5,3,3,1,1,5,1,1,1,1,1,3,2,1,3,1, ,1,0,0,0,0,0,0,0,5,5,4,5,5,5,2,2, ,7,1,2, ,1,1, , , ,0, , , , 
1171,1,2,6,1,1, , , , , ,1,1, , ,6,4,2,1,5,1,2,2,1,2,2,0,1,0,0,0,0,10,2,3,4,5,3,5,3,4, , ,1, , ,1, , , ,8,1, , , , , , , , , , , , , , , ,0,2,0,0,3,2,1,3,1,0, , , , , , , , , , , , , , , , , , , , , , , , , , ,0,0,0,0,0,0,0,1,3,1,3,4,4,2,4,2, ,7,4,2, ,2, ,1, , ,1,1, , , 
1173,1,3,1,1,1, ,1, , , , , , , ,4,3,2,2,4,5,4,4,3,2,2,0,1,0,0,0,0,8,3,3,4,4,5,4,2,2, , , , , , ,1,1,when im in trouble or get it taken away.,8, ,1,1, , ,1, , , , , , , ,2,3,3,1,1,0,2,0,1,2,2,1,0,3,2,2,2,3,3,3,2,2,3,3,4,4,1,4,2,4,4,3,3,3,4,4,3,1, ,1,1,1,0,0,0,0,0,4,3,2,3,4,4,4,2, ,7,2,2, ,1, , , ,1,0, , , , 
1175,1,2,1,1,1,1, ,1, , , , , , ,4,4,4,4,5,1,2,2,3,3,3,0,1,0,0,0,0,11,4, ,2,2,2,1,1,2,1, ,1, ,1, , , , ,3, , ,1, ,1, , , , , , , , ,2,4,2,0,0,0,1,2,0,1,0,0,0,1,2,1,1,1,1,1,2,1,4,1,3,4,1,3,3,3,2,1,1,3,1, ,1,4, ,1,1,0,1,0,0,0,0,4,2,2,1,1,1,3,1, ,7,1,2, ,1, , , ,1,0, , , , 
1178,1,4,1,1, , , ,1, ,1, , ,1,Step Dad,2,5,4,4,5,3,2,1,3,3,2,0,0,0,0,0,1,10,5,4,2,4,4,4,3,2, , ,1, , ,1, , , ,4, ,1, , , ,1, ,1,1,1, , , ,2,3,1,0,1,0,0,1,2,1,0,0,1,2,2,1,1,1,1,1,1,1,4,3,4,4,1,4,2,3,3,1,1,5,1,5,1,1, ,1,0,0,0,0,0,0,0,4,1,1,1,1,2,3,1, ,7,2,2, ,1, , , ,1,0, , , , 
1182,1,5,1,1, , ,1, , , , , ,1,cat and dog,6,5,5,4,4,2,1,1,3,3,3,0,0,0,0,0,1,11,5,5,4,5,2,3,4,1,1, ,1,1,1,1, , , ,3, ,1,1,1, , , , , , , , , ,3,3,2,1,0,1,3,1,0,1,0,1,0,3,3,3,4,4,3,2,2,2,3,4,4,2,2,3,2,3,4,3,3,3,3,3,3,2, ,0,1,1,0,0,0,0,0,3,1,3,3,3,2,1,2, ,7,3,2, ,1, , , ,1,0, ,1, , 
1185,1,3,1,1,1, ,1, ,1, , , ,1,fish,4,4,4,3,5,2,2,1,3,2,2,0,0,0,0,0,1,11,3,1,1,4,1,4,1,3,1, ,1, , ,1, , , ,4, ,1, , , ,1,1, , , , , , , , , , , , , , , , , , , , , , , , , , , , , , , , , , , , , , , , , , , , , ,1,1,1,0,0,0,0,0,3,1,1,1,1,1, ,1, ,7,2,1,I don't need any though.,1, , , ,1,0, , , , 
1186,1,3,1,1, , , , , , , , , , ,4,3,2,2,5,2,2,1,3,2,2,1,0,1,1,1,0,9,2,1,2,1,1,1,5,2, ,1, ,1, ,1, , , ,8, , ,1, , , , , , , , , , , , , , , , , , , , , , , , , , , , , , , , , , , , , , , , , , , , , , , , , ,999,999,999,999,999,999,999,999, , , , , , , ,1, ,8,3,2, ,2, ,1, , ,0, , , , 
1189,1,5,1,1,1, , , , , , , ,1,My Twin sister,4,5,3,5,5,3,1,1,3,3,2,0,0,0,0,0,1,8,2,1,1,5,3,3,3,1, , , , , , , ,1, ,8, ,1,1, ,1, , , , ,1, , , ,1,5,1,0,1,0,1,0,3,1,0,0,0,4,4,4,1,1,1,2,2,1,4,3,3,4,1,4,1,4,4,1,1,3,1,4,1,1, ,1,0,0,0,0,0,0,0,3,5,2,1,1,4,2,2, ,7,2,2, ,1, ,1, ,1,0, , , , 
1190,1,3,1,1,1,1, , , , , , , , ,5,4,5,2,5,1,1,1,3,3,3,0,0,0,0,0,1,10,4,3,2,2,1,4,2,3,1, ,1, , ,1, , , ,4, , , , ,1, , , , , , , , ,1,1,2,0,1,0,2,0,0,0,0,0,1,3,1,2,1,1,1,1,1,1,1,1,3,1,1,4,1,1,2,1,2,4,2,5,3,2, ,1,1,0,0,0,0,0,0,4,4,2,1,3,4,1,2, ,7,1,2, ,2, , , ,1,0, , , , 
1191,1,2,1,1,1, , , ,1, , , , , ,5,5,5,5,5,2,3,2,3,2,2,0,0,0,0,0,1,11,4,5,2,4,4,5,5,2, , ,1, , ,1, , , ,3, ,1, ,1,1,1, ,1,1,1, , , ,1,1,1,1,1,0,0,3,0,2,1,1,1,2,1,2,2,2,1,2,3,2,3,4,2,1,1,1,2,1,3,1,1,4,3,4,2,1, ,1,0,0,0,0,0,0,0,4,5,5,4,4,4,4,2, ,7,1,2, ,1, , , ,1,0, , , , 
1192,1,3,1,1,1, , ,1,1, , , , , ,5,4,5,3,5,2,2,1,3,2,2,0,0,0,0,0,1,12,4,1,2,4,1,2,2,1,1, , , , , , , , ,8, ,1, , ,1, , , , , , , , ,4,5,1,2,2,0,3,0,2,0,1,1,0,1,1,2,1,1,1,2,2,1,4,2,4,4,1,4,4,2,3,1,3,3,2,4,3,1, ,1,1,0,0,0,0,0,0,4,2,2,4,2,4,1,2, ,7,2,2, ,1, , , ,1,0, , , , 
1199,1,2,1,1,1, ,1, , , , , , , ,4,4,2,4,5,2,1,1,3,2,3,0,1,0,1,0,0,0,3,2,1,4,1,3,1,1, , , , , ,1,1, ,If we're eating out then no devices other my noise cancelling headphones,8, , , , , , , , , , , ,1,I don't use social media.,1,1,1,1,3,0,2,0,2,2,0,0,1,4,2,3,1,1,1,1,2,2,2,3,4,5,5,5,3,2,3,5,5,3,3,1,4,1, ,0,1,0,0,0,0,0,0,3,3,3,4,1,5,1,2, ,7,1,1,"I have a 504, I am allowed to take breaks if I need them and cannot be penalized for missing/late work due to medical issues",1, , , ,1,0, , , , 
1201,1,4,1,1, , ,1, , , , , , , ,5,5,5,5,5,2,2,3,3,3,2,0,0,0,0,0,1,10,3,3,2,4,2,2,2,5,1, ,1, , , , , , ,8,1, , , , , , , , , , , , , , , ,0,0,0,0,2,0,0,0,0,0,3,3,3,2,2,3,1,1,1,4,4,4,4,2,4,4,4,4,4,4, , , , , , ,0,1,0,0,0,0,0,0,4,2,4,4,2,4,1,1, ,7,2,2, ,1, , , ,1,0, , , , 
1202,1,3,1,1,1, , , , , , , , , ,4,3,4,5,5,4,4,5,2,3,2,1,0,0,0,0,0,8,4,1,1,3,1,3,5,5, , ,1, , , , , , ,8, , , , , , , , , , , ,1, ,1,1,1, , ,3,1, , , ,3,1,3,1,1,1,1,1,1,3,3,3,5,5,5,5,5,5,5,5,5,5,5,1,1,1,1,1, ,1,0,0,0,0,0,0,0,5,5,5,5, ,4,5,1, ,7,5,1, ,1,1, , , ,0, , , , 
1203,1,2,1,1,1, , , , , , , , , ,2,4,2,2,5,3,3,4,3,3,3,0,0,0,0,0,1,11,5,1,3,4,5,5,2,3, ,1,1, ,1, , , , ,6, ,1,1, ,1, , , , ,1, , , ,1,1,3,0,1,0,3,0,0,1,0,0,0,3,4,2,1,2,1,1,1,1,3,3,2,4,1,3,1,3,3,1,2,5,1,4,2,1, ,0,1,0,1,0,0,0,0,3,4,4,4,2,4,3,1, ,7,1,2, ,1, , , ,1,0, , , , 
1205,1,4,1,1,1,1,1, , , , , , , ,3,5,4,4,5,2,1,1,3,3,3,0,0,0,0,0,1,12,5,4,2,5,4,3,1,3, , ,1, , ,1, , , ,4, ,1,1, ,1,1,1, ,1,1, , , ,1,1,2,0,0,0,3,0,0,1,1,0,1,3,2,3,2,2,2,1,2,1,4,4,4,5,1,3,4,3,4,1,1,4,3,3,4,1, ,1,0,0,1,0,0,0,0,4,3,4,4,3,4,1,1, ,8,1,2, ,1, , , ,1,0, , , , 
1206,1,2,1,1,1,1, , , , , , , , ,5,4,5,2,5,1,2,2,3,2,2,999,999,999,999,999,999,11,4,1,3,5,1,4,3,2,1, , , ,1,1, , , ,4, ,1, , ,1, , , , , , , , ,1,3,1,3,2,0,1,1,0,0,2,3,2,3,2,3,2,2,2,2,1,3,3,4,4,4,1,3,3,4,3,2,2,4,4,2,4,6, ,1,1,0,0,0,1,0,0,5,4,4,3,4,4,5,1, ,7,1,2, ,2, , , , ,0, ,1, , 
1207,1,3,6,1, , ,1, , , , , , , ,4,4,5,3,5,2,2,1,2,2,2,0,0,0,1,1,0,10,5,5,3,5,5,5,1,3,1, ,1, , ,1, , , ,8, ,1, , , , , , , , , , , ,4,5,1,2,2,2,2,3,3,1,1,3,2,1,4,1,1,1,1,2,1,3,1,4,4,5,1,3,3,4,4,1,3,5,1,5,1,1, ,0,1,0,0,0,0,0,0,5,5,2,5,5,4,2,1, ,7,6,1,im not very good with individual work.,2, ,1, , ,1,1, , , 
1210,1,3,1,1, , , , , ,1, , , , ,3,3,3,3,3,3,3,3,2,1, ,0,1,0,0,0,0,12,3,3,3,3,3,3,3,3, , , , , , , ,1, , , , , , ,1, , , , , , , , , , , , , , , , , , , , , , , , , , , , , , , , , , , , , , , , , , , , , , , ,999,999,999,999,999,999,999,999, , , , , , , ,3,Out of this wrld,9,5,1, ,2, , , ,1,1, , , , 
1211,1,3,1,1, , , , ,1, , , , , ,2,5,4,3,5,3,2,1,3,3,3,0,0,0,0,0,1,11,4,1,2,2,1,2,5,3, , , , , , , , , ,4, , ,1, ,1, , , , , , , , , , , , , , , , , , , , , , , , , , , , , , , , , , , , , , , , , , , , , , , ,999,999,999,999,999,999,999,999, , , , , , , ,1, ,8,6,1,i go to school,2, , , , ,1,1, , , 
1217,1,5,1,1,1, , , , , ,1, , , ,1,5,4,5,5,4,4,3,3,3,2,0,1,0,0,0,0,11,5,1,2,5,5,5,1,4, , ,1, , , , , , ,8, ,1, , , , , , , , , , , ,4,3,2,2,2,1,2,1,2,2,0,3,2,4,4,4,4,4,3,2,3,3,4,4,4,4,2,3,3,4,3,2,4,3,4,3,4,1, ,1,0,0,0,1,1,0,0,4,4,2,4,3,4,1,2, ,7,1,2, ,1, , , ,1,0, , , , 
1219,1,4,1, ,1, ,1, , , , , , , ,5,5,2,1,3,1,1,1,2,3,3,0,0,0,1,0,0,13,5,1,1,2,1,3,4,3, , , , , ,1, , , ,8, ,1,1, , ,1, , , , , ,1,I taught myself somewhat,2,2,1,0,2,0,0,1,1,1,0,0,0,1,3,4,1,1,1,3,2,3,4,2,3,5,1,4,1,3,2,1,1,3,3,1,5,1, ,0,1,0,0,0,0,0,0,1,1,1,5,1,1,6,1, ,10,1,2, ,2,1, , , ,0, , , , 
1223,1,5,4, , , ,1, , , , , , , ,6,5,5,5,5,1,1,1,3,3,3,0,0,0,0,0,1,13,5,1,1,5,5,5,5,5,1,1,1, ,1,1, , , ,3, ,1,1, ,1,1, , , ,1, , , ,3,5,1,0,0,0,3,0,0,0,0,1,0,4,1,4,4,4,2,2,2,2,4,4,4,5,5,4,4,4,4,4,4,5,1,5,1,1, ,0,0,0,0,0,0,0,1,1,4,1,4,3,1,1,1, ,10,2,2, ,1, ,1, , ,0, , , , 
1225,1,2,1,1, , ,1,1,1, , , , , ,6,4,5,3,5,2,3,2,3,2,3,0,0,0,1,1,0,10,5,1,3,2,1,3,4,4,1, ,1, ,1, , , , ,8, , ,1, ,1, , , , , , , , ,2,5,4,1,1,3,1,2,1,3,2,3,2,2,2,3,2,3,2,2,1,2,4,2,3,1,1,3,1,1,2,2,2,2,3,2,3,1, ,1,0,0,0,0,0,0,0,4,2,2,2,4,2,6,1, ,7,4,2, ,2, ,1, , ,1, , , , 
1227,1,3,1,1,1, , ,1, , , , , , ,2,5,5,4,5,2,3,3,3,3,3,0,0,0,0,0,1,8,4,1,3,4,2,3,3,3, ,1,1, , ,1, , , ,3, ,1,1,1,1, , , , , , , , ,3,4,1,0,1,0,2,2,0,0,2,0,0,3,2,2,2,3,2,1,1,1,4,3,4,5,5,4,4,4,4,5,5,4,2,4,1,1, ,1,0,0,0,0,0,0,0,5,3,3,4,2,4,2,1, ,7,1,2, ,1, , , ,1,0, , , , 
1228,1,3,1,1,1, , , , , , , , , ,5,4,3,2,4,4,4,2,3,3,2,0,1,1,0,0,0,12,4,4,2,3,2,2,1,2, , , , , , , ,1, ,8, ,1,1, ,1, , , , , , , , ,1,2,2,3,2,1,2,2,1,3,1,2,2,4,4,3,2,4,3,2,3,3,3,2,4,4,2,3,3,3,3,4,1,3,4,3,3,1, ,1,0,0,1,0,1,0,0,4,5,4,3,4,5,5,1, ,10,2,2, ,1, , , ,1,0, , , , 
1246,1,3,6,1,1, ,1, , , , , , , ,5,4,2,2,4,1,4,1,2,3,3,0,0,0,0,0,1,11,5,1,1,5,2,4,5,3, ,1,1, , , , , , ,5, ,1,1, ,1, , , , , , , , ,1,4,2,0,0,0,3,2,0,0,0,1,0,2,4,4,3,1,1,3,3,3,5,2,4,5,2,2,2,1,3,5,1,5,3,4, ,1, ,1,0,0,0,0,0,0,0,4,4,2,5,4,5,6,1, ,7,1,2, ,1,1, , , ,0, , , , 
1249,1,2,1,1, , , ,1, , , , , , ,4,3,1,4,1,1,5,5,2,3,3,1,0,0,0,1,0,13,5,1,5,5,1,5,1,1, , , , ,1, , , , ,2,1, , , , , , , , , , , , ,2,2,1, , , , , , , , ,3, ,3,4,4,1,1,4,3,3,3, , , , , , , , , , , ,2,5,1,5,1, ,0,0,0,0,0,0,0,1,5,5,1,3,5,5,6,1, ,7,2,2, ,2, , , , ,0, , ,1, 
1250,1,3,1,1,1, , , , , , , , , ,4,5,4,2,5,4,4,1,3,3,3,0,0,0,0,0,1,11,5,2,3,3,2,3,4,5, , ,1, , ,1, , , ,8, ,1,1, ,1,1, , ,1, , , , ,1,5,3,0,0,0,2,0,0,0,0,0,1,1,1,1,1,2,1,1,2,1,1,4,4,5,1,4,3,4,3,1,1,5,2,1,1,1, ,1,0,0,0,0,0,0,0,1,2,3,1,1,4,5,1, ,7,2,2, ,1, , , ,1,0, , , , 
1251,1,3,1, , , , , , ,1, , , , ,4,5,5,1,5,1,4,5,3,2,2,1,1,0,0,0,0,0,5,1,3,5,1,3,1,1,1, ,1, ,1,1, , , ,8, ,1, , ,1, , , , , , , , ,1,1,1,0,3,3,0,0,3,0,3,3,1,3,4,4,1,3,1,1,2,3,4,1,4,1,1,4,1,4,3,1,4,3,3,3,1,1, ,1,0,0,0,0,0,0,0,1,1,1,3,5,1,5,2, ,8,4,2, ,1, , , , ,1, , ,1,African American
1252,1,3,1,1,1, , , , , , , , , ,4,4,5,2,5,1,4,1,3,3,3,0,0,0,0,0,1,11,4,1,2,2,1,3,3,4,1, ,1, , , , , , ,8, ,1, , , ,1, , , , , , , ,3,3,1,0,1,0,3,0,0,0,0,0,0,1,3,3,1,1,1,1,1,1,4,1,3,3,1,3,3,3,3,1,1,5,1,3,1,1, ,1,1,0,0,0,0,0,0,4,1,1,1,1,1,6,3,Prefer not to say,7,1,2, ,1, , , ,1,0, , , , 
1253,1,3,7,1,1, , ,1, , , , , , ,5,5,4,5,4,2,2,2,3,3,2,0,0,0,0,0,1,12,1,1,1,4,1,2,1,3,1, , , , , , , , ,8, ,1,1, ,1, , , , , , , , ,2,3,1,0,0,0,0,1,0,0,0,0,1,2,2,2,2,2,2,1,1,1,2,3,3,1,1,3,3,1,3,1,3,5,1,3,1,1, ,1,1,0,0,0,0,0,0,5,2, ,2,2,3,3,2, ,10,1,2, ,2, , , , ,0, ,1, , 
1259,1,3,1,1,1,1, ,1,1, , , , , ,5,4,5,3,5,2,3,1,3,3,3,0,0,0,0,0,1,12,4,1,2,3,1,2,2,1,1, ,1, , , , , , ,4, ,1, , , ,1, , , , , , , ,1,2,2,0,1,0,3,0,2,0,0,0,1,3,1,2,1,1,1,1,1,1,2,3,4,4,1,3,3,2,4,1,2,4,1,3,1,1, ,1,1,0,0,0,0,0,0,5,4,2,4,1,4,4,2, ,7,1,2, ,1, , , ,1,0, , , , 
1260,1,3,1,1,1, , , ,1, , , ,1,Pets,2,5,5,4,4,1,1,3,2,2,2,0,1,0,0,0,0,11,5,2,3,5,5,5,3,3,1, ,1, ,1,1, , , ,4, , ,1, ,1, , , , , , , , ,2,3,1,0,3,0,1,0,0,0,0,1,2,3,2,3,2,2,2,1,3,3,3,1,3,3,1,3,3,2,2,1,1,4,4,4,3,1, ,1,1,0,0,0,0,0,0,4,4,2,2,1,4,3,2, ,7,2,1,"Yes, I have academic support",1, , , , ,0, , ,1,American
1262,1,3,2,1,1,1, , ,1, , , , , ,3,5,5,4,5,1,1,2,3, , ,0,1,0,0,0,0,0,4,3,1,4,4,4,1,2,1, ,1, ,1,1, , , ,3, ,1, , , , , , , , , , , ,3,1,2,0, ,0, ,3, ,0,0,0,0,1,1,1, ,1,1, ,1,1, ,4,3,5,5,3,2,3,3,5,5,2,1,1,1,1, ,1,0,0,0,0,1,0,0, ,4,4,3,3,3,3,1, ,7,2, , ,2, , , , ,1,1, , , 
1264,1,3,1, ,1, , ,1, , , , , , ,2,3,3,3,5,1,3,2,3,3,3,0,1,0,0,0,0,11,5,1,3,5,5,3,2,1,1,1,1, ,1,1, , , ,8, ,1,1, ,1,1,1, ,1, , , , ,2,3,2,2,1,2,0,3,1,1,2,2,2,1,1,1,1,1,1,1,1,1,4,3,3,3,1,2,4,1,2,3,1,3,1,3,2,1, ,0,1,0,0,0,0,0,0,4,3,5,3,4,5,6,2, ,8,1,2, ,1, , , ,1,1, , , , 
1267,1,5,5,1, ,1, , , , , , , , ,4,5,5,4,5,2,4,2,3,2,2,0,0,1,0,0,0,11,3,1,2,4,1,3,4,2,1, , , , , , , , ,8, ,1, , ,1, , , , ,1, , , ,2,3,1,0,2,0,3,2,0,2,0,0,0,3,2,3,3,3,3,1,1,1,3,3,3,3,2,3,2,2,4,2,3,3,4,3,4,1, ,1,0,0,0,0,0,0,0,4,4,3,4,3,3,2,2, ,7,2,2, ,2,1, , , ,0, , , , 
1269,1,3,1,1,1, , ,1, , , , , , ,4,4,5,4,5,2,3,1,3,2,3,0,1,0,0,1,0,12,5,1,4,3,1,2,1,3,1, , , ,1,1, , , ,4, ,1, , , , , , , , , , , ,3,4,1,1,2,1,1,3,0,1,1,0,0,4,3,3,1,1,1,1,1,1,4,3,3,4,5,2,3,4,4,5,1,5,1,4,1,4, ,0,1,0,0,0,0,0,0,3,2,2,1,1,2,2,1, ,8,3,2, ,2, , , ,1,0, , , , 
1270,1,3,1,1,1, , ,1,1, , , , , ,3,4,4,3,5,4,3,2,1,3,2,0,0,0,0,0,1,8,4,1,1,4,2,3,3,3, , , , , , , ,1, ,8, ,1, , , , , , , , , , , ,3,2,2,0,1,0,0,2,0,1,1,1,1,4,3,3,4,3,4,1,2,2,3,3,3,4,1,4,1,2,3,1,1,3,4,3,4,1, ,0,1,0,0,0,0,0,0,3,4,3,2,2,3,4,2, ,7,2,2, ,2, , , , ,1,1, , , 
1273,1, ,1,1,1, ,1,1,1, , , , , ,5, , , , , , , ,3,3,3,0,0,0,0,1,0, , , , , , , , , , , , , , , , , , , , , , , , , , , , , , , , , , , , , , , , , , , , , , , , , , , , , , , , , , , , , , , , , , , , , , , ,999,999,999,999,999,999,999,999, , , , , , , ,1, ,7,3,1,Down Syndrome,1, ,1, , ,0, , , , 
1274,1,4,1,1,1, , ,1, , , , , , ,6,5,3,2,5,2,3,2,2,3,2,0,0,0,1,0,0,12,3,1,2,4,1,1,1,1, , , , , , , ,1, ,8, , , , ,1,1, , ,1,1, , , ,2,3,2,2,3,1,1,2,2,0,1,3,3,4,4,4,1,1,1,3,2,3,2,4,4,5,5,4,1,4,1,5,1,3,1,3,1,1, ,1,0,0,0,0,0,0,0,5,5,4,2,3,4,5,2, ,8,4,2, ,2, , , , ,1,1, , , 
1275,1,3,1,1,1, , ,1, , , , , , ,5,4,5,5,5,2,2,1,3,3,3,0,0,0,0,0,1,9,4,5,2,5,3,4,4,3,1, , , , , , , , ,6, ,1,1, ,1, , , , , , , , ,3,3,1,1,0,0,3,0,0,0,1,0,0,4,3,3,2,2,3,1,2,1,3,3,4,4,3,3,2,2,3,3,2,4,3,4,3,1, ,0,1,1,0,0,0,1,0,5,4,3,4,3,4,1,1, ,7,1,2, ,1, , , ,1,0, , , , 
1276,1,3,1,1, , ,1, , , , , , , ,2,3,2,1,5,1,3,2,3,3,2,0,1,0,0,0,0,11,4,2,2,2,1,3,2,3, , , , , ,1, , , ,8,1, ,1, , , , , , , , , , ,1,1,1,0,0,1,2,2,1,1,2,2,0,4,3,3,1,1,1,2,2,2,4,2,2,4,1,4,3,2,5,1,2,3,2,2,5,3, ,1,0,0,1,0,0,0,0,4,2,2,5,4,3,5,2, ,9,4,2, ,2, ,1, , ,0, , , , 
1280,1,2,1,1, , ,1, , , , , , , ,4,4,3,5,5,3,5,5,3,3,3,0,0,0,0,0,1,12,5,1,2,5,1,5,4,5,1,1,1, ,1,1, , , ,5, ,1,1,1,1,1,1,1,1,1, , , ,5,2,1,2,1,1,1,0,1,0,0,0,2,2,2,1,1,1,1,1,1,1,3,4,4,5,5,4,4,4,4,4,4,5,1,5,2,1, ,1,0,1,1,0,1,1,0,4,1,1,5,3,5,4,2, ,7,1,2, ,1, ,1,1, ,0, , , , 
1281,1, , , , , , , , , , , , , , , , , , , , , , , , ,999,999,999,999,999,999, , , , , , , , , , , , , , , , , , , , , , , , , , , , , , , , , , , , , , , , , , , , , , , , , , , , , , , , , , , , , , , , , , , , , , , ,999,999,999,999,999,999,999,999, , , , , , , ,2, , , , , , , , , , , , , , , 
1282,1,3,1,1,1, ,1, , ,1, , , , ,6,5,3,3,5,5,5,3,3,3,3,0,0,0,0,0,1,9,3,2,2,4,1,1,5,1, , ,1, , , , , , ,8, , ,1,1,1,1, , , , , , , ,1,3,2,1,3,1,0,2,1,3,1,1,0,4,4,4,4,4,4, ,3,2,3,4,4,5,1,4,2,2,2,2,1,1,5,2,5,1, ,1,0,0,1,0,0,0,0,5,5,5,4,2,5,1,2, ,6,1,2, ,1,1, , , ,0, , , , 
1283,1,3,7, , ,1, , , , , , , , ,6,4,3,4,3,2,2,1,2,3,1,0,1,0,0,0,0,10,5,4,2,4,5,5,5,4,1, ,1, , , , , , ,8, ,1, , , , , , , , , , , , , , ,0,0,0,0,2,0,0,0,0,0,2,1,1,1,1,1,1,1,1, , , , , , , , , , , , , , , , , ,1,0,0,0,0,1,0,0,5,3,2,3,1,3,3,1, ,6,4,2, ,2, , , , ,0, , ,1,i dont know
1284,1,4,6,1,1, , , ,1, , , , , ,5,4,3,2,5,1,2,1,2,3,3,0,0,0,0,0,1,0,1,1,1,5,1,5,5,4, , , , , , , ,1, ,8, ,1, , ,1,1,1, ,1,1, , , ,1,1,1,0,0,0,3,0,0,0,1,0,0,1,1,1,1,1,1,1,1,1,2,4,4,5,3,5,4,5,3,5,5,5,4,5,5,1, ,0,1,0,0,0,1,0,0,5,2,1,1,4,5,4,1, ,6,4,1, ,1,1, , , ,0, , , , 
1285,1,3,1, , , , , , , , , ,1,mom gran mom and gran pa,1,4,3,3,5,3,4,3,2,2,2,1,0,1,1,1,0,10,4,1,3, ,2,4,4,1,1, ,1, ,1,1, , , ,8, , ,1, , , , , , , , , , , , , , , , , , , , , , , , , , , , , , , , , , , , , , , , , , , , , , , , , ,999,999,999,999,999,999,999,999, , , , , , , ,1, ,6,2,1, ,1, , , , ,1, ,1, , 
1286,1,3,7,1,1, , ,1, , , , , , ,4,5,4,4,5,2,2,1,3,2,2,0,0,0,0,0,1,8,3,2,3,5,4,3,2,3,1,1,1, ,1,1,1, ,During sports.,8, ,1, , ,1, , , , , , , , ,4,4,1,1,3,0,1,1,0,1,0,0,0,4,4,4,4,4,4,2,3,1,3,4,4,5,1,3,2,2,3,2,1,4,4,4,5,4, ,1,0,0,0,1,0,0,0,4,4,4,4,3,5,2,2, ,6,2,2, ,1, , , , ,0, ,1,1,Lebanese
1287,1,3,1,1,1, , ,1, , , , ,1,Mittens (my kitten),1,4,4,5,5,1,2,1,2,2,1,0,0,0,0,0,1,10,4,4,3,5,5,3,3,4,1, ,1, ,1,1, , , ,6, ,1, , , , , , , , , , , ,3,3,2,1,1,0,1,2,0,0,0,1,0,3,2,4,3,3,2,2,1,1,3,4,4,4,1,4,3,4,3,5,3,4,3,3,4,1, ,1,0,0,0,0,0,0,0,3,4,2,3,1,2,2,2, ,6,2,2, ,1, , , , ,1, , ,1,"Puerto Rican, Ecuadorian, Mexican"
1288,1,3,6, , , , , , , , , ,1,My parents are divorced so I sometimes live with my dad and sometimes with my mom and my sisters are in college,5,5,1,2,4,4,2,1,2,3,3,1,0,0,0,0,0,9,5,3,2,2,3,2,2,1, , ,1, , ,1,1, ,it depends on homework unless i want to listen to music,8, , , , ,1, , , , , , , , ,3,3,2,0,2,0,2,1,0,3,0,0,0,1,2,2,2,2,2,1,1,1,5,4,5,5,2,5,5,5,5,5,3,5,1,4,1,2, ,1,1,0,1,0,0,0,0,5,5,2,2,1,1,2,2, ,6,2,2, ,1, , , , ,0, , ,1,"White,french,italian,tiny bit indian and african only a tinsy winsy bit"
1289,1,4,1,1,1,1,1, ,1, , , , , ,3,5,5,4,5,3,4,1,3,3,2,0,0,0,0,0,1,8,4,1,1,3,1,2,1,2, , , , , ,1, , , ,8, ,1, , , , , , , , , , , ,1,4,1,0,1,0,1,3,0,0,1,1,0,3,3,3,1,1,1,1,2,2,1,3,4,1,1,4,1,3,3,3,3,4,2,3,2,1, ,1,1,0,0,0,0,0,0,4,2,2,3,2,3,6,2, ,6,2,2, ,1, ,1, , ,1,1, , , 
1290,1,3,1,1,1, ,1, , ,1, , , , ,4,4,3,4,5,1,1,2,3,3,3,1,0,0,0,0,0,9,4,5,1,1,1,1,2,1, , ,1, , , , , , ,8, , , , , ,1, , , , , , , , , , ,3,0,0,0,0,0,0,0,0,0,1,1,2,1,1,1,1,1,1,4,4,4,5,1,1,4,1,4,1,1,5,1,5,1,4, ,1,1,0,0,1,0,0,0,5,5,5,1,1,1,6,1, ,6,2,2, ,1, , , ,1,0, , , , 
1291,1,2,1,1,1, ,1, ,1, , , , , ,4,3,5,2,4,1,1,3,2,3,2,0,0,0,0,0,1,11,3,4,4,5,5,5,3,2,1, ,1, , ,1, , , ,8, ,1,1, ,1, , , ,1, , , , ,2,4,2,1,3,2,2,2, ,2,2,2,3,4,4,4,4,4,3,2,2,2,4,2,4,4,1,2,4,3,4,1,1,2,3,2,4,4, ,0,1,0,1,0,0,0,0,4,3,2,3,4,4,5,1, ,6,1,2, ,1, , , ,1,0, , , , 
1292,1,3,1,1, , , ,1, , , , ,1,Our pet cat.,2,4,3,1,5,1,3,3,1,2,3,0,0,0,1,1,0,9,4,1,3,3,1,1,1,1, , , , ,1,1, , , ,8, ,1, ,1,1,1,1, ,1,1, , , ,1,1,1,0,0,1,3,0,0,0,1,0,0,4,4,4,4,4,4,2,2,2,4,2,1,3,1,4,1,1,4,1,1,3,3,3,4,1, ,1,0,0,0,0,0,0,0,4,1,3,1,2,3,6,1, ,6,4,2, ,1, , , ,1,0, , , , 
1293,1,3,1,1,1,1, , , , , , , , ,3,5,5,3,5,2,2,1,2,3,2,0,1,1,0,0,0,8,5,1,3,4,3,4,1,2, , , , ,1,1, , , ,8, ,1, , , , , , , , , , , , , , ,0,0,0,1,1,0,0,0,0,1,2,1,1,1,1,1,2,1,1, , , , , , , , , , , , , , , , , ,0,1,0,0,0,0,0,0,2,1,1,1,1,1,6,1, ,6,2,2, ,2, ,1, , ,1,1, , , 
1294,1,3,1,1,1, ,1, , ,1, , , , ,4,5,3,2,5,4,2,1,3,3,3,0,0,0,0,1,0,10,4,1,1,3,2,1,5,3, , , , , ,1, , , ,8,1, , , , , , , , , , , , ,2,1,2,0,0,0,1,0,0,0,2,3,0,3,4,3,4,4,1,2,2,1,3,4,4,4,1,3,3,3,3,2,1,3,4,5,5,1, ,0,1,0,0,0,0,0,0,3,1,4,5,4,5,6,1, ,6,2,2, ,1, , , ,1,0, , , , 
1295,1,5,6,1,1, , ,1,1,1, , ,1,cat,4,5,4,5,5,2,1,1,3,2,1,0,0,0,0,1,1,10,4,5,2,4,4,4,4,1,1, ,1, , ,1,1, ,During homework or during family time,5, ,1, , , , , , , , , , , ,3,4,3,0,0,0,0,1,0,0,0,0,0,1,1,3,2,1,1,1,1,1,1,4,4,3,1,4,1,4,2,1,1,5,1,4,1,1, ,1,1,0,1,0,0,0,0,5,4,1,4,1,3,1,2, ,6,2,2, ,1, , , , ,0, , ,1,European
1296,1,2,1,1,1, ,1, , , , , , , ,2,5,2,3,3,1,1,4,2,2,3,1,1,0,0,0,0,8,5,5,1,3,1,5,3,1, , , , , , , ,1, ,8, , , , , , , , , , , ,1, ,2,1,4, , , , , , , , , , , , , , , , , , , , , , , , , , , , , , , , , , ,4, ,999,999,999,999,999,999,999,999, , , , , , , ,1, ,6,5,1, ,2, , , , ,0, , ,1, 
1297,1,3,1,1,1,1, , ,1, , , , , ,4,5,4,5,5,1,1,1,3,2,2,0,0,0,0,0,1,10,5,1,3,2,3, ,4,3,1, ,1, , , , , , ,2, , , , ,1, , , , , , , , ,2,4,1,0,1,0,0,3,0,0,2,0,0,2,2,2,2,2,2,1,1,1,3,4,3,5,5,5,1,5,1,5,5,5,1,1,1,4, ,1,0,0,0,0,0,0,0,4,3,4,3,2,3,5,2, ,6,2,2, ,1, , , , ,0, , ,1, 
1298,1,3,1,1,1, , ,1, , , , , , ,5,4,4,2,5,5,5,4,3,2,3,0,0,0,0,0,1,11,5,1,5,5,5,5,2,4, , ,1, , ,1, , , ,8, , , , ,1, , , ,1, , , , ,1,1,1,0,1,0,0,0,0,0,0,0,2,3,4,4,4,4,2,2,1,1,4,4,4,4,3,4,4,4,4,3,3,2,4,4,5,1, ,1,0,0,0,1,0,0,0,5,2,4,5,3,5,6,2, ,6,1,2, ,1, , , , ,0, , ,1, 
1299,1,3,1,1,1,1,1, , , , , , , ,4,4,4,5,5,1,1,2,3,3,2,0,0,0,0,0,1,11,5,4,3,5,4,4,2,1,1, , , ,1,1, , , ,3, , ,1, ,1, , , , , , , , , , , ,0,0,0,0,0,0,0,0,0,0,2,1,2,1,1,1,1,2,1,1,4,4,3,1,3,4,1,3,1,1,4,1,5,2,6, ,1,1,0,0,0,0,0,0,4,2,3,4,4,2,3,2, ,6,2,2, ,1, , , , ,0, , ,1, 
1300,1,4,6,1,1, ,1, ,1, , , , , ,4,5,5,3,5,1,3,1,3,3,3,0,1,0,0,0,0,0,4,2,1,2,1,1,1,1, , , , , , ,1, ,Weekends and after homework,2, , , , , , , , , , , ,1,I don't use social media, , , ,0,1,0,0,2,0,2,2,1,0,3,2,2,1,1,1,1,1,2,4,4,5,5,5,3,5,5,3,5,5,4,1,3,2,4, ,0,1,0,0,0,0,0,0,4,3,3,4,5,3,6,2, ,6,1,2, ,2, ,1, , ,0, , , , 
1301,1,3,8,1, , , , ,1, , , , , ,4,4,3,4,2,1,1,2,3,3,2,1,1,0,0,0,0,10,5,3,3,5,1,5,1,1, ,1,1, , , ,1, , ,1, ,1,1,1,1, , , , , , , , ,1,1,1,2,1,2,1,1,0,0,1,3,2,4,3,4, , , ,3,3,3,3,4,4,5,5,4,4,1,4,5,3,5,5,2,5, , ,0,0,0,0,0,1,1,0,4,5,4,5,3,3,2,2, ,6,2,1, ,2, , , , ,0, , ,1,russian and english
1302,1,3,8,1,1, , , ,1, , , , , ,4,5,4,4,5,1,1,2,3,3,3,0,0,0,0,0,1,10,4,1,1,5,2,3,3,1,1,1,1, , ,1, , , ,3, ,1, , , , , , , , , , , ,2,4,1,0,0,0,0,3,0,0,0,0,0,2,2,2,2,2,2,2,1,2,5,5,5,5,5,5,5,5,5,5,5,4,1,4,2,1, ,0,1,0,0,0,0,0,0,5,5,1,1,1,5,2,1, ,6,1,2, ,1, , , ,1,0, , , , 
1303,1,4,2,1,1,1,1, ,1, , , , , ,6,5,5,5,5,1,1,2,3,2,2,0,1,0,1,1,0,9,5,4,3,5,3,5,3,3,1,1,1, ,1,1,1, ,after util i do all my respolsible chores and more.,4, ,1,1,1,1,1,1, ,1, , , , ,2,5,1,1,2,0,1,3,2,1,2,2,1,4,4,4,2,2,3,2,2,1,1,4,3,4,1,4,4,4,4,1,4,4,1,4,2,2, ,1,0,0,0,0,0,0,0,4,4,4,4,4,5,3,2, ,6,4,1,i have it for acadimec sppourt.,1, , , , ,1,1, , , 
1304,1,2,3,1, , ,1, , ,1, , , , ,2,4,3,3,4,3,3,2,3,2,2,0,0,0,0,0,1,10,3,2,2,4,2,4,4,2, , ,1, , , , , , ,4, , , , ,1, , , , , , , , , , , ,2,1,0,2,2,2,2,2,3,1,3,3,3,4,4,4,1,3,2,4,2,3,4,1,3,2,2,3,1,2,3,4,2,3, , ,1,0,0,0,0,1,0,0,4,4,4,4,3,3,3,2, ,6,2,2, ,1, , , , ,0,1, , , 
1305,1,3,1,1,1,1,1, , , , , , , ,4,4,3,4,5,3,3,2,3,3,3,0,1,0,0,0,0,11,5,1,2,5,1,3,1,2, , ,1, ,1,1, , , ,4, , ,1, ,1, , , ,1, , , , ,2,3,2,0,0,0,2,1,0,3,0,0,0,2,1,1,1,1,1,1,1,1, , , , , , , , , , , ,4,1,4,2,1, ,1,1,0,0,0,0,0,0,2,1,1,2,1,2,3,1, ,6,1,2, ,2, , , ,1,0, , , , 
1306,1,3,1, , , , , , ,1,1,1, , ,6,5,5,2,5,1,1,1,3,2,1,0,1,1,0,1,0,11,5,1,3,2,1,1,5,5,1, ,1, , , , , , ,8, , , , , ,1, , , , , , , ,1,4,3,0,0,0,0,2,0,1,2,0,0,1,1,3,3,3,1,1,1,1,1, ,4,4,1,4,4,4,4,1,1,2,4,2,5,1, ,1,0,0,0,1,0,0,0,1,3,5,3,1,5,6,1, ,6,3,1,I need extra help learning,1, , , ,1,0, , , , 
1307,1,3,2,1,1, , ,1, , ,1,1, , ,6,2,1,2,5,1,5,5,3,2,3,0,1,0,1,0,0,10,5,2,3,5,5,5,5,1, , , , , , ,1, ,After school,1, ,1, , , ,1,1, ,1, , , , ,1,4,1,0,0,3,1,3,0,1,1, ,3,3,3,3,1,1,1,2,3,3,1, ,1,4,1,4,3,1,4,1,1,1,4,1,5,4, ,1,1,0,0,0,0,0,0,1,1,5,3,4,4,2,2, ,6,2,2, ,1, , ,1, ,1, , , , 
1308,1,5,1,1,1,1,1, , , , , , , ,4,4,4,4,5,3,2,1,3,3,3,0,0,0,0,0,1,11,5,5,3,5,3,4,4,4, , , , , ,1, , , ,8, ,1, , , , , , , , , , , , , , ,0,0,1,1,0,0,1,1,0,0,3,4,4,2,2,1,2,1,2,4,2,4,3,5,4,1,2,4,5,5,3,3,5,4,1, ,0,1,0,0,0,0,0,0,1,2,3,4,2,4,1,2, ,6,2,2, ,2, , , , ,0, , ,1,American
1309,1,2,1,1,1,1,1, , , , , , , ,4,4,4,2,5,1,1,1, ,2, ,0,0,0,0,0,1,10,3,1,2,2,1,2,2,2,1, ,1, , , , , , ,4, , ,1, ,1, , , , , , , , , , , , , , , , , , , , , , , , , , , , , , , , , , , , , , , , , , , , , , , ,999,999,999,999,999,999,999,999, , , , , , , ,2, ,6,3,2, ,1, , , ,1,0, , , , 
1310,1,4,1,1,1, , ,1, , , , , , ,4,4,2,3,5,1,2,4,3,3,3,0,0,0,0,0,1,0,4,2,2,5,1,5,1,2,1,1,1, ,1,1,1, ,sports or with friends,4, ,1, ,1, ,1,1, ,1,1,1, , ,1,4,1,3,3,0,0,3,2,3,0,1,3,3,4,4,3,3,3,1,3,2,3,3,4,4,1,2,3,2,3,2,2,2,3,2,2,1, ,1,1,0,0,0,0,0,0,5,5,2,4,4,4,3,2, ,6,1,2, ,2, , , ,1,0, , , , 
1311,1,3,1, , , , ,1, ,1,1, , , ,4,5,1,4,5,4,4,5,2,3,2,0,0,0,0,0,1,11,3,4,5,4,2,5,1,3, , ,1, , ,1,1, , my aunt said i use my phone to much so she said shes gonna take it after school and give it to me for an hour,7, , , , ,1, , , , , , ,1,myself,1,3,4,2,3,2,0,0,0,0,2,3,1,3,3,4,4,4,4,3,3,3,5,1,4,4,1,4,1,4,2,4,4,2,4,2,5,2, ,1,0,0,0,0,0,0,0,4,5,3,2,3,3,6,2, ,6,2,2, ,2, , , , ,1, , ,1,im white and spanish
1312,1,3,1,1, , , , , , , , , , ,4,5,5,3,5,2,2,2,2,2,2,1,0,0,1,0,0,11,2,1,1,5,1,4,2,2, , , , ,1, , , , ,8, , , , , ,1, , , , , , , ,1,3,1,1,0,3,1,1,0,0,2,1,1,4,4,4,1,1,1,1,2,2,4,2,3,5,5,3,5,2,5,5,4,4,1,3,2, , ,0,0,0,0,0,0,0,1,1,2,1,5,2,2,6,2, ,6,2,2, ,2, , , ,1,0, , , , 
1313,1,2,1,1,1, , ,1, ,1, , , , ,5,4,5,3,5,1,1,3,3,3,3,0,0,0,1,0,0,0,5,5,5,5,5,5,1,1,1,1,1, ,1,1, , , ,1, ,1, , , ,1, , , , , , , ,2,1,1,3,3,3,0,2,3,3,2,3,2,4,4,4,3,3,3,2,3,3,4,1,3,3,3,3,3,1,4,2, ,4,1,1,3,4, ,1,1,0,0,0,0,0,0,5,5,3,3,5,3,3,2, ,6,1,2, ,1, , , ,1,0, , , , 
1314,1,3,1,1,1, , ,1,1, , , , , ,5,4,5,4,4,1,1,1,3,3,3,0,0,0,0,0,1,9,3,1,2,3,1,3,2,4,1, ,1, , ,1, , , ,8, ,1, , , ,1, , ,1, , ,1,Cub Scout Leader,3,3,2,0,0,0,2,1,0,0,1,0,0,3,3,3,3,4,4,1,1,1,3,4,4,5,2,4,3,4,4,4,4,4,3,4,2,1, ,1,0,0,0,0,0,0,0,5,2,2,4,1,4,1,1, ,6,1,2, ,1, , , ,1,0, , , , 
1315,1,3,1,1,1, , ,1, , , , ,1, ,4,5,5,4,5,1,1,1,3,3,2,0,0,0,0,0,1,0,5,5,2,5,1,1,1,1,1, ,1, ,1, , , , ,7, , , , , , , , , , , ,1,I dont use social media,1,4,1,0,0,0,0,1,0,0,0,0,0,1,1,1,1,1,1,1,1,1,2,2,3,3,1,4,1,3,2,1,4,5,1,4,2,4, ,0,1,0,0,0,0,0,0,3,1,1,1,1,3,1,1, ,6,2,2, ,2, , , , ,0, , ,1, 
1316,1,3,3, ,1, , , , , , , , , ,5,4,4,3,5,2,1,1,3,2,2,0,1,0,0,0,0,8,5,3,5,5,3,5,1,3, , ,1, ,1, , , , ,2, ,1, ,1,1, , , ,1,1, , , ,2,3,1,3,2,0,1,2,1,2,0,0,1,3,2,2,2,2,2,1,2,1,4,3,4,4,1,3,3,4,3,1,3,3,3,3,3,1, ,1,0,0,0,0,0,0,0,3,5,5,2,3,3,3,1, ,6,2,2, ,2, , , , ,0, , ,1, 
1317,1,3,1,1, , , , , , , , , , ,1,4,4,4,4,3,3,1,2,3,2,0,0,0,0,0,1,10,5,5,5,5,4,2,3,2, , ,1, , ,1, , , ,8, ,1,1, ,1, ,1, ,1,1, , , ,1,1,2,0,2,0,0,0,1,0,0,2,1,4,3,3,2,1,1,1,2,1,4,4,4,4,1,4,1,4,3,4,3,5,1,5,1,1, ,1,0,0,0,0,0,0,0,1,1,1,4,1,1,1,1, ,6,2,1,i dont know,2, ,1, ,1,0, , , , 
1318,1,3,1,1,1, ,1, , , , , ,1,2 pet birds and a bunny,3,5,5,5,5,1,1,1,3,3,3,1,0,0,0,0,1,9,5,1,3,5,1,3,5,5,1, ,1, , ,1, , , ,8, ,1, , , , , , , , , , , ,3,1,1,0,0,0,3,0,0,3,0,0,0,1,1,1,2,1,1,1,1,1,3,4,3,1,1,1,4,4,3,1,1,5,1,5,1,3, ,1,0,0,0,0,0,0,0,1,1,1,5,1,5,6,1, ,6,1,2, ,1, , , , ,0, , ,1,American
1319,1,4,1,1,1, , ,1, ,1, , , , ,4,5,4,5,4,3,3,1,3,2,3,0,0,0,0,1,0,11,4,5,3,4,5,4,2,2, , ,1, ,1,1, , , ,5, , ,1, ,1, , , ,1, , , , ,2,2,2,2,1,0,1,1,0,1,1,0,0,4,4,3,1,1,1,3,2,1,4,1,4,4,1,5,2,5,4,1,1,4,3,4,4,1, ,0,1,0,1,0,0,0,0,4,4,1,1,1,4,2,1, ,6,2,2, ,1, , , ,1,0, , , , 
1320,1,2,1,1,1,1,1, ,1, , , , , ,6,5,4,1,4,1,1,1,2,3,2,1,0,0,0,0,0,10,5,5,3,4,5,4,1,3,1,1,1, ,1,1, , , ,3, , , , ,1, , , , , , , , , , , , , ,3, , , , , ,3, , , , , , , , , , , , , , , , , , , , , , , , , ,1, ,999,999,999,999,999,999,999,999, , , , , , , ,1, ,6,1,1,i have mr smith,1, , , , ,0, , ,1,irish
1321,1,2,1,1, , , , ,1, , , ,1,step father,3,4,5,4,5,1,1,1,3,3,3,0,0,0,0,0,1,11,3,1,2,5,5,4,2,2,1,1, , , ,1, , , ,5, ,1, , ,1,1, , , ,1, , , ,3,4,2,0,0,0,0,3,1,0,3,0,0,2,2,3,1,2,1,1,1,1,2,4,4,4,2,4,4,4,4,4,4,4,3,2,3,1, ,1,1,0,0,0,0,0,0,4,3,3,3,2,2,1,1, ,6,3,1,I have a monitor in my room and a tesk with all my school supply's organized.,1, , , , ,1,1, , , 
1322,1,3,1,1,1, , , ,1, , , , , ,5,3,4,1,4,5,3,1,2,3,2,1,1,0,0,1,0,11,1,1,3,2,1,3,3,2, , ,1, , ,1, , , ,8, , , , ,1, , , , , , , , ,2,5,1,0,0,0,0,2,0,3,1,2,0,3,1,1,1,1,1,1,1,2,1,4,4,4,1,3,1,3,2,1,2,4,1,4,1,4, ,1,0,0,0,0,0,0,0,1,4,2,1,1,1,6,1, ,6,3,1,it is a schedule telling me where  and when i need to got to that class,2, , , , ,0, , ,1,?????????????????????????????????????
1323,1,3,1,1,1,1, , , , , , , , ,4,5,5,5,5,3,2,1,3,3,3,0,0,0,0,0,1,10,4,5,5,5,3,5,3,3,1,1,1, , , , , , ,3, ,1, , , ,1,1, , , , , , ,3,3,1,0,0,0,3,0,0,0,0,0,0,2,2,1,1,1,1,1,1,1,5,4,4,4,5,4,4,3,4,5,4,4,1,4,1,1, ,0,1,0,0,0,0,0,0,4,1,1,4,1,3,2,1, ,6,1,2, ,1, , ,1,1,0, , , , 
1324,1,5,1,1,1, ,1, , , , , , , ,6,5,5,5,5,2,2,1,3,3,3,0,1,0,0,0,0,10,4,3,2,4,4,5,2,2, , ,1, , ,1, , , ,8, ,1,1, ,1,1, , , , , , , ,1,2,1,0,0,0,1,1,1,0,0,0,0,1,1,1,1,1,1,1,1,1,2,4,4,4,2,4,2,2,3,2,2,4,2,4,1,1, ,1,0,0,0,0,0,0,0,4,2,2,4,1,2,2,2, ,6,1,2, ,2, , , ,1,0, , , , 
1325,1,5,1,1,1, , ,1, , , , , , ,5,5,4,4,5,3,2,2,3,3,2,0,0,0,0,0,1,11,5,1,2,5,5,4,1,3, , , , , , ,1, ,any time when I don't do work,5, ,1,1,1,1,1,1, , , , , , ,4,4,1,0,0,0,2,0,0,0,0,0,0,2,2,2,1,1,1,1,1,1,1,4,4,4,1,3,3,2,4,1,1,5,1,4,1,1, ,1,1,0,0,0,0,0,0,4,4,2,4,1,3,1,1, ,6,2,2, ,2, , , ,1,0, , , , 
1326,1,2,2,1,1, , ,1, ,1, , , , ,5,4,3,3,5,1,2,1,3,2,3,1,0,0,0,0,0,0,5,5,1,5,1,5,1,2, , , , , , ,1, ,I don't have have a phone nor elctronics.,1, ,1, , , , , , , , , , , ,1,1,1,1,1,1,1,2,2,3,1,2,1,1,2,4,1,1,1,3,2,1,3,4,1,1,1,4,1,1,2,5,5,2,1,5,3,1, ,1,0,0,0,0,0,0,0,3,3,3,3,4,3,6,2, ,6,1,2, ,2, , , , ,1,1, , , 
1327,1,2,3, , , , , , , , , ,1,mom,3, ,4, , , , , , ,3, ,0,1,0,0,0,0,9, , ,2, ,2, , , , , , , ,1, , , , ,4, , , , , ,1, , , , , , , ,2, , ,1, , , , , , , , , ,4, , , , , ,2, , , ,4, , , , , , , , , ,2, , , ,4, ,0,1,0,0,0,0,0,0,4, , , , , ,2,2, ,6,4,2, ,1, , , , ,0, , ,1,brasilian
1328,1,3,7,1,1,1,1, , , , , , , ,6,5,5,5,5,1,1,1,2,2,3,0,0,0,0,0,1,8,5,1,1,1,5,5,3,2,1, ,1, , ,1, , , ,5, , ,1, ,1, , , , , , , , ,4,3,4,1,0,1,0,2,0,0,0,0,0,4,3,3,2,2,2,1,1,1,1,4,4,3,1,4,1,1,4,1,1,1,2,1,1,4, ,0,0,0,0,0,0,0,1,1,2,1,2,1,1,1,2, ,6,2,2, ,2, , , , ,0, , ,1,white/American
1329,1,3,1,1,1, , , , , , , ,1,Cat,6,5,5,3,4,1,2,2,3,3,2,0,0,0,0,0,1,0,4,4,5,5,4,5,3,2,1,1,1, ,1,1, , , ,3, ,1,1, ,1,1, , , ,1, , , ,2,2,2, ,1,2,3,3,2,0,2,1,2,4,3,4,1,1,1,1,2,1,1,3,4,4,5,4,4,3,4,5,4,3,2,4,2,4, ,1,1,0,0,0,0,0,0,5,5,2,4,4,5,2,2, ,6,2,2, ,1, , , ,1,0, , , , 
1330,1,3,1,1,1, , ,1,1, , , , , ,4,5,5,4,5,1,2,3,3,2,2,0,0,0,1,1,0,11,4,3,3,5,5,5,3,3,1, ,1, , ,1, , , ,3, ,1,1, ,1, , , ,1, , , , ,4,4,2,1,2,0,1,2,0,0,0,0,2,2,2,2,1,2,2,1,2,1,2,4,3,3,1,3,4,1,4,1,1,5,1,3,1,4, ,1,0,0,0,0,0,0,0,3,4,4,3,2,3,4,1, ,6,2,2, ,2, , , , ,0, , ,1,idk I was born in the united states
1331,1,3,1,1,1,1, ,1, , , , , , ,4,4,2,2,4,3,3,5,3,3,3,1,0,1,1,0,0,0,5,3,4,5,2,3,3,2, ,1,1, , ,1,1, , ,7, ,1,1, ,1, , , ,1,1, ,1, ,2,4,2,1,2,0,2,0,2,1,1,1,1,1,3,2,3,2,1,1,2,2,3,1,4,3,4,4,4,4,4,4,4,3,3,3,4,5,i would rather not say,1,0,0,1,0,1,0,0,4,5,3,4,4,4,3,2, ,6,5,2, ,1, , , , ,0, , ,1,american
1332,1,4,1,1, , , ,1, , , , , , ,6,3,2,3,3,3,4,5,3,2,3,0,0,0,0,1,0,9,3,3,2,3,2,5,4,3, , ,1, , , , , , ,8, , ,1,1, , , , , , , , , , , , ,1,2,0,0,3,0,0,1,2,2, , , , , , , , , , , , , , , , , , , , , , , , , , ,0,0,0,0,0,0,0,1,3,4,3,4,3,3,6,1, ,6,4,1, ,2, , , ,1,0, , , , 
1333,1,4,1,1,1, , , , ,1, , , , ,4,5,5,4,5,3,3,1,3,3,3,0,0,0,0,1,0,11,4,1,2,5,3,4,2,3, , ,1, , , , , , ,5, ,1, , , , , , , , , , , , , , , , , , , , , , , , , , , , , , , , , , , , , , , , , , , , , , , , , , ,999,999,999,999,999,999,999,999, , , , , , , ,2, ,6,2,1,I have a IEP,1, , , , ,0, , ,1,amarican
1334,1,5,7,1,1,1, , , , , , ,1,my twin sister,1,5,5,5,5,1,1,1,2,2,2,0,0,1,0,1,0,11,5,1,1,1,1,1,3,3,1,1,1, ,1,1, , , ,8,1, ,1, , , , , , , , , , , , , , , , , , , , , , , , , , , , , , , , , , , , , , , , , , , , , , , , , ,999,999,999,999,999,999,999,999, , , , , , , ,2, ,6,2,2, ,2, , , , ,0, , ,1,Lebanon
1335,1,3,1,1, , , , , , , , , , ,2,5,5,4,5,3,2,1,2, , ,1,0,0,0,0,0,9,5,3,3,3,4,3,2,3,1, , , , , , , , ,4, , , , ,1, , , , , , , , , , , ,0,0,0,0,3,0,0,3,0,0,3,2,2,1,1,1,1,1,1,3,2, ,2,3,3,1,4,1,1,1, , , , , , ,0,0,1,0,0,0,0,1,1,3,1,2,2,2,5,1, ,6,3,2, ,1, , , ,1,0, , , , 
1336,1,5,1,1,1, , , ,1, , , , , ,4,5, , , , , , , , ,3,0,0,0,0,0,1,10,5,1,2,4,4,4,1,3, , , , , , , ,1, ,8, ,1, , , , , , , , , , , ,3,4,1,0,0,0,0,2,0,0,3,0,0,2,1,1,1,4,1,1,1,1,1,4,4,4,1,4,4,3,5,4,5,5,1,5,1,1, ,1,0,0,0,0,0,0,0,2,3,4,3,1,5,1,1, ,6,2,2, ,1, , , , ,0, , ,1,albanian
1337,1,3,1,1,1, ,1, , ,1, , , , ,4,5,5,2,3,1,1,1,3,3,3,0,0,0,0,0,1,10,4,1,1,1,1,1,3,1,1, ,1, , , , , , ,8,1, , , , , , , , , , , , ,1,1,1,0,0,0,3,0,0,0,0,1,0,1,1,1,1,1,1,2,1,1,3,4,4,4,5,5,4,4,4,5,5,5,2,3,3,5, ,1,1,0,0,0,0,0,0,4,3,3,3,3,3,6,1, ,6,1,2, ,2, , , ,1,0, , , , 
1338,1,3,1,1,1,1, ,1, , , , , , ,4,4,1,3,5,4,3,4,2,3,3,0,0,0,0,0,1,11,2,1,2,4,1,1,2,4, , , , , , , ,1, ,8, ,1, , , , , , , , , , , , , , ,0,2,0,1,3,0,0,1,0,1,3,1,2,1,1,1,2,2,1,3,3,4,1,1,3,3,4,2,1,1, , , , , , ,1,1,0,0,0,0,0,0,3,3,3,3,1,5,6,2, ,6,2,2, ,2, , , , ,0, ,1, , 
1339,1,3,1,1,1, , ,1,1, , , , , ,2,4,5,5,5,2,1,1,3,3,3,0,0,0,0,0,1,10,4,1,2,3,2,2,4,2, , , ,1, , , , , ,4, ,1, , ,1, , , , , , , , , , , ,0,0,0,0,3,0,0,0,0,0,1,1,1,1,1,1,1,1,1,5,4,1,1,1,3,2,3,3,5,5, , , , , , ,0,0,0,0,0,0,0,1,1,1,1,1,1,1,2,1, ,6,1,2, ,1, , , , ,1,1, , , 
1340,1,3,1,1,1, ,1, ,1, , , , , ,4,4,3,2,5,4,4,1,3,2,2,0,0,0,0,0,1,11,4,1,3,5,1,2,3,2, , , , , ,1, , , ,8, ,1,1, ,1, , , ,1, , , , , , , ,0,2,1,0,1,0,1,3,1,0,2,4,3,3,3,3,2,3,1,1,4,4,5,2,3,4,4,4,3,3,1,1,1,5,1, ,1,0,0,1,1,1,0,0,5,5,2,3,4,5,1,1, ,6,1,2, ,1, , , , ,1, , ,1,Irish/Polish/Puerto Rican
1341,1,2,1,1,1, , ,1, , , , ,1,I have a twin,6,4,3,3,5,1,1,2,3,2,2,0,0,0,1,0,0,0,4,4,3,4,3,4,2,2,1,1,1, ,1,1, , , ,3, ,1,1, , , ,1,1, , , , , , , , , , , , , , , , , , , , , , , , , , , , , , , , , , , , , , , , , , , , ,999,999,999,999,999,999,999,999, , , , , , , ,1, ,6,2,2, ,1, , , , ,1, , ,1,I don't know this one and I am not 100% sure on the one above this question.
1342,1,4,1,1, , , , , ,1, , , , ,6,5,4,5,5,1,1,1,1,2,2,0,0,0,0,0,1,0,5,1,3,5,2,5,3,1,1,1,1, ,1,1, , , ,5,1, , , , , , , ,1, , , , ,4,4,1,0,0,0,1,0,0,0,0,2,0,3,1,3,1,1,1,1,1,1,3,4,4,4,1,4,2,4,4,1,1,5,1,1,1,5,I don't want to answer,0,1,0,0,0,0,0,0,3,5,4,3,3,3,1,1, ,6,2,2, ,2, , , , ,0, , ,1,I don't know
1343,1,2,4,1, , , , ,1,1, , , , ,6,4,2,1,1,3,5,5,3,3,3,0,0,0,0,0,1,11,5,2,5,5,1,3,4,2, , , ,1, , , , , ,1, , ,1, ,1, , , ,1, , , , ,1,1,1,2,3,3,1,0,0,1,2,2,2,1,4,2,1,1,2,2,3,3,2,5,3,1,1,4,5,4,5,3,2,3,2,3,3,1, ,0,0,0,0,0,1,0,0,5,4,4,4,5,4,5,1, ,6,1,2, ,1, ,1, , ,0, , , , 
1344,1,5,6,1,1, , ,1, , , , , , ,5,5,5,5,5,1,1,1,3,3,3,0,0,0,0,0,1,11,5,5,1,5,5,5,5,1, , , , ,1, , , , ,3, ,1,1, ,1, , , ,1, , , , ,5,5,1,2,0,2,3,0,2, ,0,0,0,3,3,4,4,4,4,1,1,1,4,4,4,5,1,4,4,4,4,4,4,5,5,5,1,4, ,0,0,0,0,0,0,0,1,5,5,5,5,5,5,1,1, ,6,1,2, ,2, , , ,1,0, , , , 
1345,1,3,1,1,1, ,1, ,1, , , , , ,3,5,5,4,5,1,2,1,3,2,3,0,0,0,0,0,1,11,5,3,1,5,1,3,1,1,1, ,1, ,1, , , , ,5, ,1,1, ,1, , , , , , , , ,4,4,1,0,1,0,2,2,0,3,0,0,1,3,4,2,1,1,1,1,2,2,5,3,2,1,1,4,1,2,1,1,2,2,1,4,1,4, ,1,0,0,1,0,0,1,0,4,2,4,2,2,4,5,2, ,6,2,2, ,1, , , ,1,0, , , , 
1346,1,3,1,1,1, , , ,1, , , , , ,6,5,5,2,4,2,2,5, ,2, ,0,0,0,1,0,0,11,5,1,3,2,1,2,1,1,1, , , , ,1, , , ,8, ,1, ,1,1,1, , , , , , , , , , , , , , , , , , , , , , , , , , , , , , , , , , , , , , , , , , , , , , ,999,999,999,999,999,999,999,999, , , , , , , ,2, ,6,2,2, ,1, , , , ,0, ,1,1, 
1347,1,5,1,1,1,1,1, , , , , , , ,6,5,1,4,5,1,1,1,2,1,1,1,0,0,0,0,0,11,5,1,1,5,1,5,4,1, , ,1, , , , , , ,7, ,1, , , , , , , , , , , ,2,5,1,3,2,0,0,2,1,3,3,0,0,3,1,2,3,2,3,3,2,2,5,3,4,3,5,5,5,4,3,4,3,5,1,5,5,1, ,1,1,0,0,0,0,0,0,4,1,3,4,1,5,1,1, ,6,2,1,I am a pull out for ela help,2, , , ,1, , , , , 
1348,1,4,1,1,1, ,1,1,1, , , , , ,4,4,5,5,5,1,1,1,3,3,3,0,0,0,0,0,1,10,5,3,1,5,1,4,1,1,1,1,1,1,1,1, , , ,2, ,1,1,1, ,1, ,1, , , , , , , , ,0,0,0,0,0,1,0,0,0,0,3,1,1,1,1,1,1,1,1,1,4,4,4,1,4,4,1,4,1,3,5,1,5,1,1, ,0,0,0,0,1,1,0,0,4,2,2,4,2,4,1,1, ,6,1,2, ,2, , , , ,1,1, , , 
1349,1,2,6,1, ,1, ,1, , , , ,1, ,3,5,5,5,1,3,4,4,2,2,2,0,0,0,0,1,0,11,4,2,2,3,2,1,2,2,1,1,1, , , , , , ,8, ,1, , , , , , , , , , , , , , ,0,0,0,0,3,0,0,3,0,0,1,1,1,1,1,1,1,1,1, , , , , , , , , , , , , , , , , ,999,999,999,999,999,999,999,999,1,1,1,1,1,1,1,1, ,6,2,1,I have a iep help me read,2, , ,1, ,0, , , , 
1350,1,3,6, , , , , , , , , ,1,mother and dad same time,4,4,4,1,1,2,2,1,2,3,1,1,0,0,1,1,0,0,5,2,2,3,1,5,5,5, , , , , , ,1, ,never don't have a phone,7,1, , , , , , , , , , , , ,1,4,1,0,1,0,0,0,0,0,1,0,0,1,2,1,1,1,1,1,1,1,1,3,4,5,5,4,1,4,4,5,5,3,2,1,4,1, ,0,1,0,0,0,0,0,0,3,4,3,2,1,2,6,1, ,6,3,2, ,2, ,1, , ,0, , , , 
1351,1,5,6,1,1, , ,1, , , , , , ,1,5,4,2,3,3,1,3,3,2,2,0,0,0,0,0,1,10,5,1,2,3,2,1,1,1,1, ,1, ,1,1, , , ,8, ,1,1, , , , , , , , , , ,1,1,1,0,1,0,1,2,1,1,2,1,1,4,3,4,4,4,4,2,3,2,1,4,1,1,1,4,2,3,3,4,4,1,1,1,1,4, ,1,0,0,0,1,1,0,0,1,3,5,3,2,4,1,2, ,6,2,1,Reading services=,2, , , , ,0, , ,1,Albania
1352,1,1,1, , , , , , , , , ,1,both my parents live in sepret houses my mom lives with my sted dad and her and my dad lives with my grand ma and him,4,2,1,3,5,3,1,1,2,3,3,0,1,0,0,0,0,10,5,1,4, ,1,4,1,3,1,1,1, ,1,1, ,1, ,7, ,1,1, ,1, ,1, , , , , , , , , ,0,1,0,1,3,1,0,0,0,0, , , , , , , , , , , , , , , , , , , , , , , , , , ,1,0,0,0,0,0,0,0,2,3,3,2,1,1,6,1, ,6,3,2, ,1, , , , ,1, , ,1,"black,spanish and white"
1353,1,4,1,1,1, , , , , , , , , ,6,3,3,1,5,5,2,3,2,3,3,0,0,0,0,0,1,9,4,2,2,4,1,1,1,2, ,1,1, , ,1, , , ,8,1, , , , , , , , , , , , , , , , , , , , , , , , , , , , , , , , , , , , , , , , , , , , , , , , , , , ,999,999,999,999,999,999,999,999, , , , , , , ,2, ,6,1,2, ,1, , , , ,0,1, ,1,American
1354,1,2,1,1,1, , ,1, ,1, , , , ,5,4,4,4,5,1,2,1,2,2,2,0,1,0,0,0,0,0,4,1,3,2,1,1,4,3,1, ,1, ,1, , , , ,8,1, , , , , , , , , , , , ,1,4, ,1,3,3,1,3,2,3,3,3,3,4,4,4,3,4,1,2,2,2,4,2,1,4,1,4,1,4,1,1,1,2,3,1,5,1, ,1,0,0,0,1,1,0,0,5,2,1,3,3,5,3,2, ,6,4,2, ,1, , , ,1,0, , , , 
1355,1,5,1,1,1,1,1, , ,1, ,1, , ,6,5,3,2,5,2,1,1,3,2,3,0,1,0,0,0,0,11,4,5,4,5,5,5,1,4,1, ,1, , , , , , ,8, ,1,1, , , , , , , , , , ,4,4,1,0,1,0,1,2,0,1,1,0,0,4,1,3,3,3,1,1,1,2,5,4,4,4,4,4,3,1,4,4,4,2,4,2,4,4, ,1,1,0,0,1,1,0,0,4,4,4,3,3,3,5,2, ,6,4,2, ,1, , , , ,0, , ,1,American
1356,1,5,1,1,1, , ,1,1, , , ,1,my moms best friend and her kids,2,4,5,5,5,1,4,4,2,2, ,0,1,0,1,0,0,9,3,3,3,3,3,3,1,2, , ,1, ,1,1, , , ,6, ,1, , , ,1,1, ,1,1, , , ,1,4,1,1,2,2,1,2,2,2,2,2,1,1,2,1,1,1,1,2,2,2,3,3,3,3,3,3,3,1,3,1,1,3,3,3,3,2, ,0,1,0,0,1,1,0,0,5,5,5,3,3,3,5,2, ,6,2,2, ,1,1, , , ,0, , , , 
1357,1,3,3,1,1, , , , , , ,1, , ,2,4,4,3,4,4,4,4,3,3,3,0,0,0,0,0,1,10,4,3,3,3,2,3,4,2, , ,1, , ,1, , , ,8, ,1, , ,1, , , ,1, , , , ,2,3,1,0,0,0,0,3,0,1,0,1,0,3,3,3,3,3,3,1,2,2,3,4,4,4,1,4,3,4,4,2,2,5,1,3,3,1, ,1,1,0,1,0,1,1,0,4,4,4,3,3,4,3,1, ,6,3,2, ,2, , , , ,1,1, , , 
1358,1,3,1,1,1, , ,1,1, , , , , ,5,5,4,5,5, , ,5,3,3,3,0,0,0,0,0,1,9,5, ,4,5,5,5, ,5,1, , , ,1, , , , ,8, ,1,1, , , ,1, , , ,1, , ,3,5,1, , ,1, ,0, , ,0,2, , ,2,1,1,1,1,2,2,1, ,4,4, , ,4, ,4, ,4,4,3,1,1,1,1, ,1,0,0,0,0,0,0,0,2,3,4,4,4,3,6,2, ,6,2,2, ,1, ,1, , ,0, , , , 
1359,1,3,1,1,1,1,1, , , , , , , ,6,4,5,3,2,2,1,1,3,3,3,0,0,0,0,0,1,8,3,4,1,5,1,1,1,2,1,1,1, ,1,1, , , ,8, ,1, , , , , , , , , , , ,1,1,2,0,0,0,0,3,0,0,0,0,0,3,2,3,1,1,1,1,1,1,3,3,3,3,3,3,3,4,1,2,3,3,1,3,3,4, ,0,1,0,0,0,0,0,0,3,3,3,3,3,3,6,1, ,6,2,2, ,2, , ,1, ,0, , , , 
1360,1,4,1,1,1,1, , , , , , ,1,Grandfather,3,5,2,5,5,1,2,1,3,3,3,0,0,0,0,0,1,8,5,4,1,5,1,4,1,3, , ,1, , , , , , ,8, ,1, , , , , , , , , , , ,3,2,1,3,3,1,2,2,3,3,1,2,0,4,3,4,2,1,1,3,2,2,4,4,2,4,1,4,1,3,4,3,3,2,4,2,5,1, ,1,1,0,1,1,1,0,0,5,5,3,4,3,5,6,2, ,6,1,2, ,1, , , ,1,0, , , , 
1361,1,3,3,1,1, , , ,1, , , , , , ,5,5,5,5, ,3,1,3,3,2,0,1,0,0,0,0,9,4,5,4,5,4,5,3,1, , ,1, ,1,1, , , ,4,1, , , ,1, , , , , , , , , , , , , , , , , , , , , , , , , , , , , , , , , , , , , , , , , , , , , , , ,999,999,999,999,999,999,999,999, , , , , , , ,2, ,6,2,1, ,1, , , , ,0,1, , , 
1362,1,3,1,1,1,1, , , , , , , , ,4,5,5,4,5,3,1,1,2,2,1,0,0,0,0,0,1,9,5,1,1,3,3,4,4,5,1, ,1, , , , , , ,8, ,1, , , ,1, , , , , , , , , , ,0,0,0,0,3,0,0,0,0,0,3,1,1,2,2,1,1,1,1,1,4,4,4,1,3,4,1,4,4,4,4,3,3,2,1, ,0,1,0,0,0,0,0,0,4,2,2,3,2,3,3,2, ,6,2,2, ,2, , , , ,0, , ,1,American
1363,1,3,1,1,1, , , ,1, , , ,1,my dog,3,4,5,3,5,2,2,4,2,1,1,0,0,0,0,0,1,11,4,2,1,4,1,1,4,3, , ,1, , ,1, , , ,4, ,1, , , , , , , , , , , ,3,4,1,0,0,0,0,3,0,0,3,0,0,1,1,1,2,1,1,1,1,1,1,3,4,4,1,4,4,4,4,2,2,5,2,4,2,1, ,1,1,0,0,0,1,0,0,1,1,1,4,1,1,6,1, ,6,2,1,yes and no i go with one teacher,1, , , , ,0, , ,1,portugal france and german
1364,1,2,1,1,1,1, , ,1, , , , , ,4,3,1,2,5,4,4,3,2,3,2,0,0,0,0,1,0,11,4,3,5,3,4,5,4,4, , , , , , , ,1, ,8, ,1, , , , , , , , , , , ,1,1,4,1,0,2,3,1,2,0,3,2,2,2,3,2,4,4,4,2,2,2,4,2,2,3,3,3,2,3,2,3,2,4,5,4,4,4, ,0,1,0,0,1,0,0,0,4,2,3,3,4,4,4,2, ,6,2,1, ,1, , , , ,0, , ,1, 
1365,1,4,1,1,1, , ,1,1, , , , , ,4,5,4,4,5,1,1,1,3,3,2,0,0,0,0,0,1,10,4,2,2,3,1,2,1,2,1,1,1, , ,1, ,1, ,5,1, , , , , , , , , , , , ,3,3,2,0,0,0,3, ,0,0,0,0,0,3,1,3,1,1,1,1,1,1,2,4,4,4,1,4,3,3,3,1,1,1,1,4,1,6, ,1,1,1,0,0,1,0,0,3,1,4,1,1,2,3,1, ,6,2,1,OT and Acidemic support,2, , , , ,0, , ,1,Amarican
1366,1,3,2, , , , , , , ,1, , , ,2,5, ,4,2,3,1,4, , , ,1,0,0,0,0,0,14,1, , , , , , , , ,1, , , , , , , ,4, ,1, , , , , , , , , , , , , , , , , ,0, , , , , , , ,2, , , , , , , , , , ,2, , , , , , , , , ,2, ,2, ,1,0,0,0,0,0,0,0,1, , , , , ,1,1, ,6, , , , , , , , ,1,1, , , 
1367,1,5,1,1,1, , , ,1, , , , , ,3,5,5,5,5,2,1,1,2,3,3,0,0,0,0,1,0,8,5,2,3,5,1,5,1,5,1, ,1, , ,1, , , ,6, ,1, ,1, ,1, , , ,1, , , ,2,5,2,0,0,0,3,2,0,0,2,1,0,1,1,2,3,3,2,1,1,1,4,2,1,5,5,4, ,2,2,5,1,4,1,3,2,1, ,1,0,0,0,0,0,0,0,4,5,2,4,2,4,6,2, ,6,2,2, ,1, , , , ,1,1, , , 
1368,1,3,1,1, , , ,1,1, , , ,1,step dad,4,4,2,3,4,5,1,1,3,3,2,0,0,0,0,0,1,8,3,1,2, ,4,2,5,3, , , , , , , ,1, ,8, , , , , ,1, , , , , , , ,2,3,3,1,3,1,2,2,1,2,2,0,3,4,3,4,3,4,4,2,2,2,2, ,4,4,4,3,2,2,3,4,3,3,3,4,3,3, ,1,0,1,1,0,0,0,0,5,4,4,4,3,4,1,2, ,6,1,2, ,1, , , , ,0, , ,1,I don't know
1369,1,3,1,1,1,1, , , , , , , , ,5,4,5,3,4,1,1,1,2,1,1,0,0,0,0,0,1,11,4,2,2,4,4,4,2,5,1, ,1, , ,1,1, ,at friend' s houses (unless we are playing an online game together),8, ,1,1, ,1, , , ,1,1, , , ,3,4,2,2,3,1,0,3,3,3,0,0,3,3,3,2,3,3,3,1,1,2,1,3,3,4,5,4,2,4,4,2,1,3,1,3,2,2, ,0,1,0,0,0,0,0,0,4,2,4,4,3,4,2,2, ,6,1, , ,2, , , ,1,0, , , , 
1370,1,3,3,1,1, ,1,1,1, , , , , ,6,5,4,4,4,4,2,2, ,2, ,0,0,0,0,1,0,9,5,3,4,3,3,3,4,3, , ,1, , ,1, , , ,5, , , , ,1, , , , , , , , ,3,3,1,0,0,0,1,2,2,0,0,0,0,1,1,1,1,1,1,1,1,1,1,4,4,1,1,4,4,4,4,1,1,5,1,5,2,1, ,1,1,0,0,0,0,0,0,1,1,1,1,1,1,1,1, ,6,4,2, ,2,1, , , ,0, , , , 
1371,1,3,1,1,1, ,1,1, , , , , , ,4,5,5,5,5,1,1,1,3,3,3,0,0,0,0,0,1,10,3,1,2,3,1,1,1,1,1, ,1, , , , , , ,3, , , , ,1, , , , , , , , , , , ,0,0,0,0,3,1,1,0,0,0,1,1,1,1,1,1,1,1,1,1,3,1,1,1,3,3,1,3,1,1,5,1,5,1,4, ,0,0,0,0,0,0,0,1,3,3,3,3,2,2,1,2, ,6,4,2, ,1, , , ,1,0, , , , 
1372,1,4,6,1,1, , ,1, , , , , , ,5,4,5,5,5,1,3,1,3,3,2,0,0,0,0,0,1,0,5,1,2,1,1,5,3,2, , , , , , ,1, ,all times because I don't have a phone,1, , , , ,1,1, , , , , , , ,2,5,1,0,0,0,0,2,0,0,0,0,0,3,3,1,1,1,1,1,2,3,1,4,3,5,5,3,3,3,4,5,1,5,1,4,1,4, ,0,1,0,0,0,0,1,0,5,1,2,3,1,1,1,1, ,6,1,2, ,1,1, , , ,0, , , , 
1373,1,4,3,1,1, , , ,1, , , , , ,6,5,5,5,5,1,1,2,3,3,3,0,0,0,0,0,1,12,5,5,3,5,1,4,3,3, , , ,1, , , , , ,8, , , , ,1, , , , , , , , ,1,2,1,0,0,0,1,2,0,0,0,0,0,1,1,1,1,1,1,1,1,2,1,4,4,3,1,2,4,1,3,1,1,5,1,5,1,4, ,0,0,0,0,0,0,0,1,3,3,2,4,1,1,2,1, ,6,3,2, ,2, , , , ,0,1, , , 
1374,1,3,1,1,1,1, , ,1, , , , , ,4,5,2,3,3,1,1,1,3,3,3,0,0,0,0,0,1,8,3,1,1,1,1,3,5,2, , ,1, , , , , , ,8, , , , , ,1, , ,1, , , , ,3,3,1,0,0,0,0,0,0,0,0,0,0,2,2,2,1,1,1,2,1,2,3,3,3,3,3,3,3,3,3,3,3,5,1,5,1,1, ,1,0,0,1,1,0,0,0,4,4,2,3,1,3,2,1, ,6,1,2, ,2, ,1, , ,0, , , , 
1375,1,3,1, ,1,1,1, , , , , , , ,6,5,5,5,4,2,1,2,3,2,2,1,0,0,0,0,0,8,5,1,3,1,1,3,2,4, , , ,1,1, , , , ,8,1, , , , , , , , , , , , ,3,4,1, , , , ,1,3,1,0,0, ,1,1,1,1,1,1,2,1,1,1,3,3,4,1,3,3,4,4,4,2,5,1,2,1,1, ,0,0,0,0,0,0,0,1,4,2,1,4,1,1,2,1, ,6,1,1, ,2, , , ,1,0, , , , 
1376,1,2,6, ,1, , , , , , , , , ,6,4,2,3,2,1,4,5,2,3,3,0,0,0,1,0,0,0,2,4,2,5,5,5,1,1,1,1,1, ,1,1, , , ,3, ,1, , , , , , , , , , , ,2,1,3,3,2, ,1,2,0,2,3,3,1,3, ,4,2,4,1,2,3,3,4,5,3,5,5,4,5,4,5,5,5,1,4,2,5,4, ,1,0,0,0,0,0,0,0,5,5,3,4,5,3,4,3,Rather not say,6,4,2, ,2, ,1, , ,0, , , , 
1377,1,3,3,1,1, , ,1, ,1,1, , , ,6,5,5,5,5,1,1,1,3,3,3,1,0,0,0,1,0,8,5,1,2,4,2,3,3,4,1, ,1, , ,1,1, ,  After my home work is completed,3, ,1, , , , , , , , , , , ,4,4,1,0,0,0,0,3,0,0,0,0,0,3,3,3,2,3,2,2,2,3,1,4,4,4,1,4,4,1,4,1,4,3,4,3,3,1, ,1,0,0,0,0,0,0,0,4,5,4,4,2,4,1,2, ,6,2,1, I think I do because some times I need some one to read the question for me ( but that's some times tho ),1, , , , ,0,1, , , 
1378,1,2,1,1, , ,1,1, , , , ,1,cat my mom's friend and dog,5,5,5,4,5, ,2,2,2,2,2,1,1,0,0,1,0,8,5,5,3,5,5,5,2,2, , ,1, , ,1,1, , ,4, ,1,1,1,1,1,1, ,1,1, , , ,3,3,2,0,1,3, , , , , , , ,4,2,3,2,3,2,3,3,2,4,3,4,3,2,4,3,3,4,3,3,1,5,2,5,2, ,0,1,0,0,0,0,0,0,5,4,3,3,4,3,4,2, ,6,4,1,IEP academic support,1, ,1,1,1,1,1, , , 
1379,1,3,1,1,1, , ,1, , , , , , ,4,4,4,4,4,2,2,3,3,2,2,0,0,0,0,0,1,11,4,5,2,4,2,2,1,1,1, ,1, , ,1, , , ,8, ,1, , , ,1, , , , , , , ,1,3,1,1,0,0,0,2,0,1,1,0,1,4,3,3,2,1,1,1,1,1,4,3,3,4,1,4,2,3,2,1,3,4,2,3,2,4, ,1,1,0,0,0,0,0,0,4,3,2,2,2,3,2,2, ,6,1,2, ,1, , , ,1,0, , , , 
1380,1,1,1,1,1, , , ,1, , , , , ,2,3,3,3,3,3,3,3,2,2,2,0,0,0,0,1,0,11,1,2,3,4,5,4,3,2, , , , , , ,1, , ,8, ,1, , , , , , , , , , , ,4,2,2,0,1,2,3,1,1,0,2,2,3,1,2,3,4,3,2,1,2,3,1,2,3,4,5,4,3,2,1,2,3,5,4,3,3,3, ,0,0,1,0,0,0,0,0,1,2,3,4,5,4,2,1, ,6,2,1, ,1, , , , ,0,1, , , 
1381,1,3,1,1,1, , , ,1, , , , , ,6,5,5,5,5,1, ,2,3,3,2,0,0,0,0,0,1,11,5,2,2,1,1,3,1,3,1, ,1, ,1,1, , , ,3, ,1, , , ,1, , , , , , , ,2,4,1,3,3, ,3,0, , ,3, , ,2,3,3,1,1,1,1,1,1,4,4,4,4,5,4,4,3,4,5,1,5,1,4,1,1, ,1,1,0,1,0,0,0,0,3,2,2,2,2,3,6,1, ,6,2,2, ,1, , , ,1,0, , , , 
1382,1,1,1,1, , , , , , , , , , ,4,5,2,3,1,1,2,1,3,2,3,0,0,0,1,0,0,12,5,1,2,1,1,1,1, , ,1, , , , , , , ,8,1, , , , , , , , , , , , ,5,3,1,0,0,0,0,3,0,0,3,0,0, , ,1, , , , , ,2,1,1,1,1,1,1,2,1,3,2,3,1,1,2,1,6, ,0,0,1,0,0,0,0,0, , , , , , , ,1, ,6,1,1,ma norton,2, , ,1, ,1, , , , 
1383,1,2,1, ,1, , , , ,1, , ,1,My Mom and dad live in seperate houses,2,3,2,3,5,1,2,4,3,3,2,0,0,0,0,0,1,11,3,3,2,5,2,4,2,1, , ,1, , , , , , ,8, , , , ,1, , , , , , ,1,I kinda figured it out myself,2,2,3,1,3,1,0,3,0,2,2,1,1,4,4,4,2,3,1,2,1,2,3,3,4,4,1,4,4,4,4,1,4,4,2,3,4,1, ,1,1,0,0,0,1,0,0,1,5,2,4,3,4,5,1, ,6,2,2, ,1, , , ,1,0, , , , 
1384,1,2,1,1,1, , , , , , , , , ,4,4,5,4,5,2,2,2,3,3,3,0,0,0,0,0,1,0,4,1,2,4,1,2,5,2,1, , , , , , , , ,8, , , , ,1, , , ,1, , , , ,3,3,3,0,0,0,0,1,0,0,0,0,1,2,1,1,1,3,1,1,1,1,4,3,4,5,1,3,1,2,1,1,1,4,2,3,1,4, ,1,1,0,0,0,1,0,0,4,3,4,4,2,4,1,2, ,6,2,1,Extra help on some days,1, , , ,1,1, , , , 
1385,1,3,1,1,1, , ,1,1, , , , , ,2,5,5,3,5,1,2,1,2,3,2,1,1,0,0,0,0,9,5,1,2,5,2,5,3, ,1, ,1, , ,1, , , ,8, ,1, ,1,1, , , ,1, , , , ,3,5,3,1,1,0, ,1,0,0,1,0,0,4,2,2,2,2,2,2,2,2,3,4,2,5,1,4,1,4,3,2,5,3,1,4,3,1, ,1,1,0,1,0,0,0,0,5,3,3,2,2,3,5,1, ,6,4,2, ,1, , , , ,0, , ,1,Haitian American
1386,1,4,1,1,1,1,1, , , , , , , ,4,4,5,5,5,2,2,1,3,3,2,0,0,0,0,0,1,11,4,1,2,5,1,4,3,1, , ,1, , , , , , ,8, ,1,1, , , ,1, , ,1, , , ,2,3,1,0,0,0,0,1, ,0,0,0,0,4,2,3,1,1,1,1,2,2,3,3,2,2,1,3,3,3,3,1,1,4,1,4,2,1, ,1,1,0,0,0,0,0,0,4,2,2,3,2,3,1,1, ,6,1,2, ,1, , , , ,0, ,1, , 
1387,1,4,1,1,1, ,1, , , , , , , ,4,4,4,4,5,2,2,1,3,3,3,0,1,0,0,0,0,10,4,1,1,2,2,2,4,3, , ,1, , , , , , ,3, , ,1, , , , , , , , , , ,2,2,2,0,0,0, ,2,0,0,1,0,0,2,2,2,1,1,1,1,1,1,3,3,2,1,1,1,4,1,4,1,1,5,1,5,4,1, ,1,0,0,0,0,0,0,0,4,4,1,2,1,3,2,1, ,6,1,2, ,1, , , , ,0, ,1, , 
1388,1,4,1,1,1, , , ,1, , , , , ,4,5,3,4,5,4,2,1,3,3,3,0,0,0,0,0,1,11,3,1,3,2,1,1,1,3, , ,1, , , , , , ,5, , , , , ,1, , , , , , , ,3,4,2,1,2,2,0,2,3,1,2,1,1,2,4,1,1,1,1,2,3,3,1,4,1,1,1,1,5,3,3,1,1,5,5,1,5,1, ,1,0,0,0,0,0,0,0,5,5,4,5,5,5,4,1, ,6,1,2, ,2, , , ,1,0, , , , 
1389,1, ,1,1,1, , , ,1,1, , , , ,4, , , , , , , ,2,3,2,0,0,0,0,0,1,8,3,1,3,1,1,1,1,1, , , , , , , , , ,8, , , , , , , , , , , , , , , , , , , , , , , , , , , , , , , , , , , , , , , , , , , , , , , , , , , , ,999,999,999,999,999,999,999,999, , , , , , , ,2, ,6,3,2, ,2, ,1,1,1,0, , , , 
1390,1,4,1,1,1, , ,1,1, , , , , ,5,4,2,1,2,1,2,2,3,3,3,0,0,0,0,0,1,8,5,2,1,1,1,2,3,3, ,1, , , ,1, , , ,8,1, , , , , , , , , , , , ,3,3,2,0,0,0,0,3,0,0,0,0,0,3,2,3,1,1,1,1,1,1,3,3,3,3,1,3,3,3,3,3,3,4,1,4,2,1, ,1,1,0,0,0,0,0,0,2,1,1,1,1,4,6,1, ,6,2,2, ,2, , ,1, ,0, , , , 
1391,1,5,1,1, , , , ,1, , , , , ,4,5,5,4,5,3,3,2,3,2,2,0,1,0,0,0,0,11,5,2,3,4,5,5,3,2, ,1,1, ,1, , , , ,8, , ,1, , , , , , , , , , ,2,5,4,2,3,0,1,2,1,0,2,0,2,4,4,4,2,1,1,3,1,3,4,1,4,4,5,4,4,3,4,1,3,5,1,5,1,1, ,0,1,1,0,1,1,0,0,5,5,3,1,4,5,6,2, ,6,2,2, ,2, , , , ,1,1, , , 
1392,1,5,1,1,1,1,1, , , , , , , ,4,5,5,2,5,2,2,1,3,3,3,0,0,0,0,0,1,10,4,2,3,4,2,3,3,2,1, ,1, ,1,1, , , ,4, ,1,1, ,1, , , , , , , , ,2,3,1,0,0,0,3,0,3,0,0,1,0,2,2,3,4,4,4,1,2,1,3,4,4,4,1,4,4,3,4,1,1,3,4,3,5,1, ,1,1,0,0,1,1,0,0,4,4,3,3,2,3,5,1, ,6,1,2, ,1, , , , ,1, , ,1,American/Latin/indigenous/Irish
1393,1,4,1,1,1, , , , , , , , , ,2, , , , , , , , , , ,0,0,0,1,1,0,0, , , , , , , , ,1, ,1, ,1,1, , , ,5, , , , , , , , , , , , , , , , , , , , , , , , , , , , , , , , , , , , , , , , , , , , , , , , , , , , ,1,0,0,1,0,0,1,0, , , , , , , ,1, ,6,1,2, ,2, , ,1, ,0, , , , 
1394,1,3,2,1,1, , , ,1,1, , , , ,1,1,5,2,5,1,1,2,2,3,3,1,1,0,0,0,0,11,4,1,3,1,4,5,2,1,1, ,1, ,1,1, , , ,6,1,1,1, ,1, , , ,1, , , , ,2,5,2,3,2,3,2,1,1,2,3,3,3,4,2,4,3,3,1,1,1,1,3, ,4,4,3,3,2,3,3,4,3,5,3,5,2,1, ,0,1,0,0,0,1,0,0,3,5,3,3,3,3,1,2, ,6,1,2, ,2, , , , ,1,1, , , 
1395,1,3,7,1, ,1,1, , , , , , , ,4,5,1,1,2,5,4,1,3,3,2,0,1,0,0,1,0,8,1,1,1,1,1,1,5,3, , , , , , , ,1, ,8, , ,1, , , , , , , , , , ,1,2,2,0,3,0,1,3,0,3,3,1,2,4,4,4,1,1,1,2,2,2,5,1,4,5,1,4,1,4,1,1,1,5,5,5,5,1, ,0,1,0,1,0,1,0,0,5,4,1,1,3,4,2,2, ,6,4,2, ,2, , , , ,0, , ,1,Lebanese
1396,1,3,6,1,1, , , ,1, , , , , ,5,5,5,4,5,1,2,1,3,3,3,0,0,0,0,0,1,0,5,1,3,5,5,5,1,1,1, , , , ,1, , , ,5, ,1, , , , , , , , , , , ,3,3,2,0,0,0,2,1,1,0,0,1,0,3,3,1,1,1,1,2,2,2,2,4,3,1,1,4,4,4,4,1,4,5,2,4,2,4, ,0,1,0,0,0,1,0,0,5,4,2,4,3,4,1,2, ,6,1,2, ,1,1, , , ,0, , , , 
1397,1,3,1,1,1, ,1, , , , , , , ,4,5,5,5,5,1,1,1,2,3,3,0,0,0,0,0,1,12,5,4,1,4,1,3,4,3,1, ,1, , , , , , ,8, ,1,1, ,1, , , , , , , , ,3,3,1,0,0,0,0,3, , ,0, , ,3,2,2,1,1,1,1,1,1,1,4,4,4,1,4,4,3,3,2,2,4,3,3,2,4, ,1,1,0,1,0,0,0,0,3,3,3,3,2,3,2,1, ,6,1,2, ,1, , , ,1,0, , , , 
1398,1,2,1,1,1, , ,1, , , , , , ,5,4,4,4,5,3,3,1,2,2,2,0,0,0,0,0,1,11,3,3,3,5,3,4,1,3,1, ,1, , , , , , ,8, ,1, , , , ,1, , , , , , ,3,4,2,1,1,0,0,0,0,2,1,1,1,3,1,2,1,1,1,1,1,1,4,3,4,5,1,2,3,1,3,1,1,4,3,3,2,1, ,1,0,0,0,0,1,0,0,5,3,2,5,4,5,4,1, ,6,1,2, ,1, , , ,1,0, , , , 
1399,1,3,1,1,1, ,1,1, , , , , , ,4,4,3,2,5,1,1,1,3,3,2,0,0,0,1,0,0,9,4,1,2,1,1,1,1,2, , , , , ,1, , , ,8, , , , , , , , ,1, , ,1,I dont even use social media other than youtube.,2,3,3,0,3,2,1,3,1,1,2,1,1,4,4,4,1,1,1,2,2,3,4,3,4,4,5,5,5,4,3,5,4,3,2,1,3,4, ,1,1,0,0,0,0,0,0,3,4,3,4,5,3,6,1, ,6,2,1,"I have a vomiting problem that used to bother me a lot, causing me to have to go home, and we figured out it was caused by stress, so whenever I feel too stressed out, I email someone, and they take me away for a minute so I can destress, and not vomit.",1, , , , ,0, , ,1,The only thing that I know is I am part Irish and Hungarian
1400,1,4,1,1, , , ,1, , , , , , ,4,4,5,4,5,1,2,1,3,2,2,1,0,0,1,0,0,0,4,1,3,4,1,3,1,2,1, ,1, , , , , , ,3, ,1, , , , , , , , , , , ,2,3,2,0,0,0,1,2,0,1,2,0,0,1,1,2,1,1,1,1,2,1,1,4,4,5,5,4,3,4,3,5,5,4,1,4,2,1, ,0,1,0,0,0,0,0,0,3,4,2,2,1,2,6,1, ,6,2,2, ,2, , , ,1,0, , , , 
1401,1,3,1,1,1, , ,1,1, , , , , ,6,5,3,2,4,2,4,4,3,3,2,0,0,0,1,0,0,0,5,4,3,2,3,2,2,2, , , , ,1, , , , ,4,1, , , , , , , ,1,1, , , ,2,2,2,0,1,0,3,1,0,0,0,2,1,1,3,2,3,3,4,1,3,1,4,4,4,2,1,3,3,4,4,2,5,2,1,2,1,4, ,1,0,0,0,0,0,0,0,1,2,2,3,3,4,5,1, ,6,2,2, ,2, , ,1, ,0, , ,1,dont know
1402,1,4,1,1,1,1, , ,1, , , , , ,2,5,5,3,5,1,2,1,3,3,3,0,0,0,0,0,1,0,4,1,3,2,1,5,3,3,1,1,1, ,1,1, , , ,1, ,1, , , ,1, , , , , , , ,1,2,1,1,1,0,1,2,0,0,1,2,2,3,3,3,4,4,4,1,2,3,2,4,4,5,5,2,1,5,2,5,1,2,4,2,5,1, ,0,1,0,0,0,0,0,0,5,3,2,2,3,4,2,1, ,6,2,2, ,1, ,1, , ,0, , , , 
1403,1,4,2,1, , ,1, , , , , , , ,6,5,5,5,4,1,1,1,2,2,3,0,0,0,1,0,0,9,4,1,3,1,1,1,2,3,1, ,1, , , , , , ,8,1, , , , , , , , , , , , ,1,4,1,1,2,0,2,2,0,1,0,1,2,2,1,3,3,4,3,2,2,3,4,3,3,4,1,4,5,4,5,4,5,1,4,1,5,1, ,1,0,0,0,0,0,0,0,1,3,1,2,3,3,1,1, ,6,4,2, ,2, , , , ,1,1, , , 
1404,1,2,3, ,1, ,1, , , , ,1,1,newphew and brother in law,5,2, , , , , , , ,2, ,0,0,0,1,1,0,8,1,1,2,2,1,1,4,2, , ,1, , , , , , ,7, , ,1, , , , , , , , , , , , , ,0,0,0,0,1,0,0,1,0,0,1,1, , , , ,1,1,1, , , , , , , , , , , , , , , , , ,1,0,0,0,0,1,0,0,3,2,1,2,1,2,6,1, ,6,4,1, ,1, , , , ,1,1, , , 
1405,1,4,1,1,1,1,1,1, , , , , , ,5,5,4,5,5,2,4,2,1,1,1,1,0,0,1,1,0,10,5,1,3,5,5,5,1,4,1, ,1, , ,1, , , ,5, ,1,1, , , , , , , , , , , , , ,0,0,0,0,3,0,0,0,0,0,3,3,4,1,1,1,1,1,1,4,4,4, ,1,4,4,3,3,1,1,5,1,5,1,4, ,0,0,0,0,0,0,0,1,5,1,1,1,1,1,2,2, ,6,2,2, ,2, ,1, , ,0, , , , 
1406,1,5,7,1,1, , , , , , , , , ,4,4,3,3,5,1,3,4,3,3,3,0,1,0,0,0,0,10,4,1,2,1,1,3,1,1, , , , , , , ,1, ,8,1,1, , , , , , , , , , , ,1,1,1,1,0,0,2,1,0,1,1,3,0,4,4,4,2,3,3,2,2,2,1,4,3,5,1,3,1,1,1,2,4,3,3,4,5,1, ,1,0,0,0,0,0,1,0,3,5,1,3, ,4,1,2, ,6,1, , ,1, , , , ,0, ,1, , 
1407,1,5,1,1,1, ,1, , , , , , , ,5,5,5,3,5,2,2,1,3,3,3,0,0,0,0,0,1,10,4,1,2,4,1,4,2,3,1,1,1, , , , , , ,5, ,1, , , , , , , , , , , ,3,2,1,0,0,0,3,0,2,0,0,0,1,1,1,1,1,1,1,1,1,1,4,4,4,5,5,4,4,4,4,5,4,4,1,1,4,1, ,1,0,0,1,0,0,0,0,5,1,1,5,3,5,2,1, ,6,1,2, ,2, , , ,1,0, , , , 
1408,1,3,1,1,1, ,1, , , , , , , ,4,5,5,5,5,1,2,1,3,3,3,0,0,0,0,0,1,0,4,1,1,2,1,1,1,3, , ,1, , , , , , ,3,1, , , , , , , , , , , , ,3,3,1, , , , , , , , , , ,3,1,1,1,1,1,1,1,1,4,4,4,5,5,4,4,4,4,5,5,5,2,4,3, , ,1,1,0,0,0,0,0,0,3,1,1,4,1,5,1,1, ,6,2,2, ,2, , , , ,0, , ,1, 
1409,1,3,1,1,1,1, ,1, ,1, , , , ,6,5,5,5,5,2,1,1,3,3,3,0,0,1,0,0,0,11,3,1,2,4,2,1,3,2, , ,1, ,1,1, , , ,3, , ,1, ,1, , , , , , , , ,1,2,1,0,0,0,0,2,0,0,3,0,0,1,1,3,1,1,1,1,1,1,1,4,4,4,1,4,4,1,4,4,1,5,1,4,1,1, ,0,0,0,0,0,0,0,1,4,1,3,4,1,4,5,2, ,6,2,1, I need help with reading somtimes.,2, , , ,1,0, , , , 
1410,1,2,1,1,1,1, , , , , , ,1,  dog,4,5,5,4,5,1,1,1,2,3,3,0,0,0,0,1,0,0,5,1,3,1,2,5,2,1,1,1,1,1,1, , , , ,1, , ,1, ,1, , , ,1, , , , ,3,4,2,3,2,0,1,0,0,0,0,2,3,4,4,4,1,1,1,1,3,3,2,4,3,4,5,4,3,1,4,1,4,5,1,5,5,1, ,1,1,1,0,1,1,0,0,5,4,5,4,2,5,1,2, ,6,3,1, Academic Support,1, , , , ,0, , ,1, irish
1411,1,5,4,1,1, , ,1,1,1, , , , ,5,5,4,5,5,3,4,2,3,3,2,1,0,0,1,1,0,0,5,1,3,5,1,5,1,2, , , , , , ,1, ,i do not have a phone yet,1, , , , , , , , , , , ,1,i cant do social media,1,5,4,0,1,0,0,0,0,2,0,0,0,4,3,4,1,1,1,2,3,2,1,4,2,5,5,4,4,3,3,5,4,5,2,5,1,4, ,1,0,1,0,0,1,0,0,4,4,2,3,1,4,6,1, ,6,2,2, ,1, ,1,1, ,0, , , , 
1412,1,5,1,1,1, , , ,1, , , , , ,4,5,4,5,5,2,1,3,3,3,2,1,0,0,0,0,0,11,5,3,3,4,5,3,1,2,1, ,1, ,1,1, , , ,2, ,1, , , ,1,1, , , , , , ,4,4,1,0,0,0,0,2,0,2,0,0,1,4,2,4,1,1,1,1,1,1,1,4,4,4,1,4,4,4,4,4,4,5,1,5,1, , ,0,1,0,0,0,0,0,0,4,3,4,4,1,4,2,2, ,6,3,2, ,1, , , ,1,0, , , , 
1413,1,3,1,1,1, ,1, , , , , , , ,1,4,3,2,5,2,1,1,3,3,3,0,1,0,0,0,0,9,2,1,2,4,1,2,2,3,1, , , , , , , , ,8, , , , , , , , ,1, , , , ,3,1,4,1,2,0,3,3,0,1,3,0,1,4,3,4,1,1,1,2,1,1,4,1,1,1,1,4,1,4,1,1,1,5,1,5,4,1, ,1,0,0,1,0,1,0,0,5,1,1,1,1,1,6,1, ,6,1,2, ,2, , , ,1,1, , , , 
1414,1,4,1,1,1, , ,1,1, , , , , ,4,5,4,4,5,2,2,1,1,3,3,0,0,0,0,0,1,0,4,1,2,5,1,3,2,1,1, ,1, , ,1, , , ,3, ,1, , , ,1, , , , , , , ,3,4,2,1,0,0,0,0,1,0,0,0,0,1,1,1,1,1,1,1,2,1,1,4,4,5,5,3,4,3,4,1,4,4,1,4,1,4, ,1,0,0,0,0,0,0,0,4,4,2,4,1,4,2,2, ,6,2,2, ,1, , , ,1,0, , , , 
1415,1,3,3,1,1, , ,1, , , , , , ,2,5,5,5,5,1,1,1,3,3,3,1,0,0,0,0,0,11,4,1,2,5,2,3,3,4,1, ,1, , ,1, , , ,8, , ,1, ,1, , , ,1,1, , , , , , , , , , , , , , , , , , , , , , , , , , , , , , , , , , , , , , , , , , ,1,0,0,0,0,0,0,0, , , , , , , ,1, ,6,2,2, ,1, , , , ,0,1, , , 
1416,1,2,6,1,1, , ,1, , , , , , ,5,4,3,4,5,1,1,1, , ,3,0,0,0,0,0,1,11,4,1,3,5,2,2,3,1, , ,1, , ,1, , , ,4,1, , , , , , , , , , , , ,2,2,1,0,0,0,0,3,0,0,0,0,0,1,2,1,1,1,1,1,1,1,3,5,3,3,1,2,2,1,4,1,1,5,1,1,1,4, ,0,0,0,0,0,0,0,1,5,4,4,3,2,2,1,1, ,6,1,2, ,2, , , ,1,0, , , , 
1417,1,2,1,1, , ,1, , , , , , , , , , , , , , , ,1,2,3,0,0,0,0,0,1,11,5,5,5,5,5,5,5,5, , , , , , , ,1, ,8, , , , , , , , , , , , , ,1,1,1,3,3,3,3,0,3,3,0,3,3,4,4,4,4,4,4,3,3,3,5,5,5,5,5,5,4,4,5,5,4,1,1,1,1, , ,0,0,0,0,0,0,0,1,5,5,5,5,5,5,6,1, ,6,4,2, ,2, , , ,1,0, , , , 
1418,1,3,1, , , , , , , ,1,1, , ,2,4,3,1,5,1,2,3,2,2,1,1,0,0,0,0,0,11,2,1,3,3,1,1,2,2, , , , , ,1, , , ,8,1, , , , , , , , , , , , , , , ,0,0,0,0,3,0,0,0,0,0,2,2,2,2,2,2,1,1,1,1,2,2,1,1,1,1,1,1,1,1,3,1,1,1,1, ,0,0,0,0,0,0,0,1,1,1,1,1,1,1,5,2, ,6,2,1, ,1, , , ,1,0, , , , 
1419,1,3,2,1, ,1, , , , , , , , ,5,5,4,5,5,4,1,1,3,3,3,0,1,1,1,0,0,10, , , , , , , , , , , , , , , , , , , , , , , , , , , , , , , , , , , , , , , , , , , , , , , , , , , , , , , , , , , , , , , , , , , , , , ,999,999,999,999,999,999,999,999, , , , , , , ,2, ,6,1,2, ,2, , , , ,1,1, , , 
1420,1,4,2,1,1,1,1, , ,1, , ,1,nephew,6,5,3,2,5,2,3,1,3,2,2,0,1,0,1,0,0,10,5,5,1,4,1,5,2,1, , ,1, , ,1, , , ,8, ,1,1,1, , , , ,1, , , , ,2,4,2,0,1,2,3,1,1,2,0,1,0,3,4,4,2,1,1,2,3,2,3,4,4,4,1,3,5,3,1,5,4,4,2,3,2,4, ,1,0,0,1,1,0,0,0,3,4,3,3,3,3,1,2, ,6,3,2, ,1, , , , ,1, , ,1,Causasian/mixed/hispanic
1421,1,3,1, ,1, ,1,1, , , , , , ,6,5, , , , , , , ,3, ,999,999,999,999,999,999,11,5,5,5,5,5,5,2,1,1,1,1, ,1,1, , , ,2, ,1, , , , , , , , , , , ,3,3,1,0,0, , , , , ,0, , ,3,1,3,1,1,1,1,2,1,4,4,1,4,1,1,1,1,1,1,1,5,1,1,3,4, ,1,0,0,0,0,0,1,0,3,3,3,4,2,4,1,2, ,6,2,2, ,2, , , ,1,0, , , , 
1422,1,3,1,1,1, ,1, , , , , , , ,4,4,3,2,5,2,1,1,3,2,3,0,0,0,0,1,0,10,5,3,1,4,4,5,1,3,1, , , , , , , , ,8, , ,1, , , , , ,1,1, , , ,1,3,1,0,2,0,1,3,2,0,1,0,0,4,4,4,4,4,4,1,2,1,1,5,4,4,1,1,3,2,2,4,1,2,5,2,5,1, ,1,1,0,0,1,0,0,0,5,4,3,4,3,5,6,2, ,6,4,2, ,1, , , ,1,0, , , , 
1423,1,3,1,1,1, , , , ,1, , , , ,5,5,5,5,5,2,2,1,3,3,2,0,0,0,0,0,1,10,5,3,2,5,3,5,2,3, , , ,1, ,1, , , ,3, ,1, , , , , , , , , , , ,3,4,2,0,1,3,1,0,3,3,0,0,0,4,3,3,3,4,4,1,2,2,3,3,3,1,1,4,3,4,4,4,4,4,4,3,3,1, ,1,0,0,0,0,0,0,0,5,5,5,5,5,5,5,1, ,6,2,2, ,2, , , ,1,0, , , , 
1424,1,3,1,1,1, ,1, , , , , , , ,5,5,5,5,5,1,1,1,3,3,3,0,0,0,0,1,0,11,5,3,2,5,3,5,2,2,1, ,1, , ,1, , , ,8, ,1,1, ,1, , , ,1,1, , , ,3,2,1,0,0,0,3,0,0,0,0,0,0,3,2,4,4,4,4,1,1,2,1,4,1,5,5,3,4,5,3,5,5,5,1,4,1,1, ,1,0,0,0,0,0,0,0,5,1,1,4,2,4,1,2, ,6,1,2, ,1, , , , ,0, , ,1, 
1425,1,4,1,1,1, , , ,1, , , , , ,4,4,3,3,5,1, ,4,3,2,2,0,0,0,0,1,0,11,5,2,2,5,2,2,1,3,1, , , , ,1,1, ,When they take it away,4, ,1, , ,1, , , , , , , , ,2,3,2,2,1,2,2,2,2,0,1,2,1,4,4,4,4,2,1,2,3,3,1,4,4,4,1,3,5,2,4,2,5,2,3,2,4,5,All,1,1,1,0,0,0,0,0,1,4,4,5,5,4,1,2, ,6,2,2, ,2, , , , ,0, , ,1,"Italian, French Canadian, Scottish and Irish."
1426,1,4,1,1, ,1,1, , , , , , , ,4,4,5,5,5,1,3,1,2,3,2,0,1,0,0,0,0,0,5,1,1,3,1,2,2,3,1,1,1, , ,1, , , ,8, ,1, , , , , , , , , , , , , , ,1,2,2,2,2,1,2,2,3,2,2,4,4,4,4,4,3,3,3, , , , , , , , , , , , , , , , , ,1,0,1,1,0,0,0,0,4,5,2,5,5,4,4,2, ,6,1,1, ,1, , , , ,1, , ,1,I am half black and half white
1427,1,3,1,1,1, , ,1, , , , , , ,4,3,5,3,5,1,4,3,3,3,2,0,0,0,0,1,0,0,5,3,3,5,1,5,1,3, ,1,1, ,1, , , , ,4, , , , , , , , , , , ,1,I dont use social media,2,3,1,0,1,1,3,2,2,0,1,1,0,3,3,3,1,2,1,2,2,2,3,4,3,4,1,3,3,3,3,1,1,4,1,3,1,1, ,1,0,0,0,0,1,0,0,4,4,4,4,2,3,2,1, ,6,2,2, ,2, , ,1,1,0, , , , 
1428,1,5,2,1,1, , , , , , , , , ,5,5,5,3,5,3,4,3,3,3,2,0,0,1,0,1,0,8,4,1,3,4,1,4,1,3,1, ,1, , ,1, , , ,3, ,1, , ,1,1, , ,1,1, , , ,3,3,1,0,0,0,3,0,0,0,0,0,0,4,3,2,1,1,1,1,2,2,4,4,4,5,5,4,4,4,4,5,4,5,1,5,2,1, ,1,0,0,0,0,0,0,0,4,4,3,4,1,1,1,1, ,6,2,2, ,1, , , , ,1,1, , , 
1429,1,3,1,1,1,1, , , , , , , , ,6,5,4,4,5,1,2,1,3,3,2,0,0,0,0,0,1,0,5,5,2,5,3,3,1,1,1, ,1, , , , , , ,8, ,1, , ,1, , , , , , , , ,1,2,1,0,0,0,1,2,0,0,0,0,0,3,2,3,2,2,2,1,2,1,3,2,3,4,1,4,1,3,1,1,1,3,1,3,1,1, ,1,1,0,0,0,0,0,0,2,2,2,2,2,2,6,2, ,6,2,2, ,1, , , , ,0, , ,1, 
1430,1,3,1,1,1,1,1, , ,1, , , , ,3,3,2,2,5,1,3,1,2,2,2,0,0,0,0,1,0,10,4,4,3,5,5,5,1,3, ,1, , ,1,1, , , ,3, ,1, , , , , , , , , , , ,1,3,2,0,1,3,0,3,0,0,2,2,1,3,3,2,3,3,4,2,3,3,3,2,2,3,1,1,1,4,2,2,3,2,3,2,4,1, ,1,1,0,1,0,1,0,0,4,2,2,3,4,2,6,2, ,6,3,2, ,1, , , ,1,0, , , , 
1431,1,3,1,1,1,1,1, , , , , , , ,4,5,5,4,5,3,2,1,1,3,3,0,0,0,0,0,1,0,5,3,3,5,3,4,4,2,1, , , , ,1, , , ,4, ,1,1, , , , , , , , , , ,1,5,2,0,0,0,0,1,0,0,0,0,0,4,2,4,4,1,1,1,1,1,1,4,4,4,1,4,4,3,3,1,4,4,3,4,3,1, ,1,0,0,0,0,0,0,0,4,3,3,3,3,3,1,2, ,6,1,2, ,1, , , ,1,0, , , , 
1432,1,3,1,1,1, , , ,1, , , , , ,3,5,4,3,5,2,2,1,3,3,3,0,0,0,0,0,1,8,5,3,1,3,5,5,3,2, , ,1, , , , , , ,8, ,1, , , ,1, , , , , , , , , , ,0,0,0,0,2,0,0,0,0,0,2,1,2,1,1,1,1,1,1,2,2,1,4,1,1,2,1,3,1,2,4,1,3,1,4, ,1,1,0,0,0,1,0,0,3,1,1,3,1,2,3,2, ,6,1,2, ,1, , , ,1,0, , , , 
1433,1,4,1,1,1,1, , , , , , , , ,4,5,5,5,5,3,3,4,3,3,2,1,0,0,0,0,0,9,4,1,2,5,3,4,1,2, , ,1, , , , , , ,8, ,1,1,1,1, , , , , , , , , , , ,0,1,0,1,3,0,1,1,1,1,2,1,3,3,4,4,1,2,1,5,4,4,4,5,4,3,5,4,2,5,4,3,4,2,1, ,0,1,0,0,0,0,0,0,4,3,2,2,1,3,2,2, ,6,1,2, ,2, , , ,1,0, , , , 
1434,1,3,1,1,1, ,1,1, , , , , , ,3,5,5,4,5,1,1,1,3,3,3,999,999,999,999,999,999,9,5,1,2,4,5,5,4,2,1, ,1, , ,1, , , ,8, ,1,1, ,1, , , , , , , , ,2,4,2,0,2,0,1,0,2,2,1,0,0,4,4,4,2,2,2,1,3,2,3,3,4,5,1,4,3,2,3,3,3,4,5,4,2,1, ,1,1,0,0,0,1,0,0,5,4,4,4,4,5,2,2, ,6,1,2, ,2, , , ,1,0, , , , 
1435,1,3,1,1,1,1, ,1, , , , , , ,4,4,3,4,5,1,2,2,1,2,2,0,0,0,0,1,0,9,4,2,2,4,1, ,1,2,1, ,1, , ,1, , , ,4, ,1, , , ,1, , , , , , , , , , ,1,2,0,2,2,1, ,0,0,2, , , , , , , , , , , , , , , , , , , , , , , , , , ,999,999,999,999,999,999,999,999, , , , , , ,5,2, ,6, ,1, ,2, , ,1,1,0, , , , 
1436,1,4,6,1,1, , , , , , , , , ,5,5,4,4,5,1,1,4,3,3,3,0,0,0,0,0,1,0,5,5,2,5,5,5,1,1,1,1,1, ,1,1,1, ,for more than an hour a day,2, ,1, , ,1,1, , ,1,1, , , ,3,3,1,0,0,2,0,0,3,1,2,3,0,4,4,4,1,1,1,1,1,1,1,4,4,5,5,4,4,4,4,5,4,1,1,1,4,4, ,0,1,0,0,0,0,1,0,5,5,1,5,5,5,1,1, ,6,2,2, ,1,1, , , ,0, , , , 
1437,1,3,8,1,1, , , ,1,1, , ,1,pets,4,4,5,4,5,2,2,2,3,3,3,0,0,0,0,0,1,0,4,1,3,4,3,5,1,4,1,1,1, , ,1, , , ,3, ,1, , , ,1, , ,1,1, , , ,4,3,2,2,1,0,0,1,1,0,1,2,0,1,1,3,1,2,2,2,2,2,3,4,2,4,5,2,3,3,3,1,1,4,3,3,2,1, ,1,1,0,0,0,1,0,0,5,5,3,4,4,4,3,1, ,6,2,2, ,1, , , ,1,0, , , , 
1438,1,3,4,1,1, , , , , , , , , ,4,5,5,3,5,5,1,1,1,2,3,0,0,0,0,0,1,9,1,1,1,5,1,4,5,1, , ,1, , , , , , ,8, , ,1, ,1, , , ,1, , , , ,2,5,3,0,0,0,2,3,3,0,0,0,0,3,2,1,1,1,1,1,2,1,5,4,4,5,5,4,3,4,4,4,3,5,1,5,1, , ,1,0,1,0,0,0,0,0,4,4,4,4,1,2,4,2, ,6,2,1,Yes i had an after school tutor,2, , ,1, ,0, , , , 
1439,1,3,1,1, , , , , , ,1,1,1,grandparent grandpa,2,5,5,4,4,3,2,1,2,2,3,1,0,0,0,0,0,9,1,1,1,5,2,4,3,3,1, ,1, , ,1, , , ,4, , ,1, , , , , , , , , , ,3,2,2,1,3,0,2,0,0,3,0,0,2,4,4,4,4,4,4,2,2,1,1,4,4,4,1,4,2,4,3,1,1,2,4,1,5,5,Women/girl,1,1,0,0,0,0,0,0,5,5,4,5,1,5,1,1, ,6,6,2, ,1, , ,1, ,0, , ,1,jamaican/American
1440,1,3,8,1,1, , ,1, , , , , , ,6,4,5,5,5,1,2,1,3,3,2,0,0,0,0,0,1,8,4,1,2,5,1,5,3,4,1, ,1, , ,1,1, ,When I am on my Ipad or Chromebook,4, ,1, , ,1,1, , ,1, , , , ,2,4,1,2,0,0,1,2,1,0,0,1,0,1,2,2,2,2,1,1,1,1,3,4,4,5,1,4,3,2,4,1,2,4,1,4,1,1, ,0,1,0,1,0,0,0,0,4,4,2,4,1,4,1,2, ,6,2,2, ,2, , , ,1,0, , , , 
1441,1,2,3,1,1, , , , , , , , , ,2,4,2,3,5,2,3,3,2,2,2,0,0,0,0,0,1,8,3,1,3,5,4,2,3,3,1, ,1, , , , , , ,8, ,1, ,1,1, ,1, , , , , , ,2,3,1,1,2,2,2,1,0,3,2,3,2,2,3,3,3,3,3,2,2,2,4,4,4,4,2,4,2,3,4,4,4,1,5,3,5,2, ,1,0,0,0,0,0,0,0,4,4,5,4,5,5,1,2, ,6,4,2, ,2, , , ,1,0, , , , 
1442,1,2,3,1,1, , , ,1, , , , , ,2,5,5,5,5,1,1,1,3,3,3,0,0,0,0,0,1,11,5,5,3,5,5,3,3,1, , ,1, ,1,1, , , ,2, ,1, , ,1, , , , , , , , ,5,4,1,0,0,0,3,0,0,0,0,1,0,4,3,4,3,2,2,2,2,1,1,4,4,5,1,4,3,4,4,1,1,5,1,5,1,6, ,1,0,0,0,0,0,1,0,4,4,3,3,1,1,1,2, ,6,2,2, ,1, , , , ,0,1, , , 
1443,1,3,1,1,1, , , ,1, , , , , ,4,5,5,4,5,2,3,1,3,3,3,1,0,0,0,0,0,0,4,1,1,5,2,4,4,5, , , , , ,1, , , ,8, ,1, , , , , , , , , , , ,2,3,1,0,0,0,0,1,0,0,1,0,0,2,1,1,1,1,1,1,1,1,1,4,4,4,1,3,2,4,5,1,1,5,1,4,1,1, ,0,0,0,0,0,0,0,1,1,1,1,2,1,1,6,1, ,6,2,2, ,1, , , , ,0, , ,1,American
1444,1,3,1,1,1,1, , ,1, , , , , ,4,4,5,2,5,3,1,1, ,1, ,0,0,0,0,0,1,8,4,2,3, ,5,4,2,4, , , , ,1, , , , ,5, , , , ,1, , , , , , , , , , , , , , , , , , , , , , , , , , , ,2,2,2,3,1, , , , , , , , , , , , , , , ,0,1,0,0,0,0,0,0,5,5,3,4,5,5,2,1, ,6,2,2, ,1, , , , ,1, , ,1, 
1445,1,3,1,1,1, , , ,1, , , , , ,6,4,5,5,5,1,3,1,3,3,3,1,0,0,1,0,0,0,5,5,2,5,5,5,3,1,1,1,1, ,1,1, , , ,2, ,1, , ,1, , , , , , , , ,1,3,1,0,0,0,0,2,0,0,0,0,0,3,2,3,2,2,1,1,1,2,2,4,4,3,1,2,4,1,3,1,1,5,2,3,1,1, ,1,0,0,0,0,0,0,0,4,2,2,4,3,4,6,2, ,6,2,2, ,1, , , ,1,0, , , , 
1446,1,3,1,1,1,1, , ,1, , , , , ,5,5,4,4,5,1,2,2,3,3,3,0,0,0,0,0,1,11,4,2,3,4,4,4,2,1,1, ,1, ,1, , , , ,3, ,1, , , , , , , , , , , , , , ,0,0,0,3,1,1,0,0,1,0,1,1,2,1,1,1,1,2,1,4,3,2,1,1,3,4,1,1,1,1,4,2,4,2,1, ,0,1,0,0,0,0,1,0,4,3,2,4,3,4,1,2, ,6,1,2, ,1, , , ,1,0, , , , 
1447,1,4,1,1,1,1,1, , , , , , , ,5,5,5,5,5,1,1,1,3,3,3,0,0,1,0,0,0,11,4,3,2,5,1,3,1,1,1, ,1, , ,1,1, ,After 8 o'clock,3, ,1,1, , , , , , , , , , ,4,5,1,1,0,0,2,1, ,3,1, ,0,4,3,3,1,1,1,1,2,1,2,4,1,1,1,3,4,1,4,1,1,5,1,4,1,4, ,1,1,0,0,0,0,0,0,5,3,1,3,1,3,2,2, ,6,1,2, ,1, , , ,1,0, , , , 
1448,1,5,1,1,1, , , ,1, , , , , ,2,5,3,4,5,3,3,4,1,3,3,0,0,0,0,0,1,11,3,2,2,5,1,3,1,3, , ,1, , ,1, , , ,8, , , , , , , , , , , ,1,I dont have social media,2,2,2,0,0,0,3,0,0,0,0,0,0,3,2,2,1,1,1,1,2,2,5,4,4,4,5,4,4,4,4,5,5,4,1,1,1,4, ,1,0,0,0,0,0,0,0,4,4,1,3,1,4,1,1, ,6,2,2, ,1, , , ,1,0, , , , 
1449,1,3,1,1, , , , , , , , , , ,4,5,4,5,5,2,1,1,3,3,2,0,0,0,0,0,1,10,4,5,2,5,5,4,3,2,1,1,1, ,1, , , , ,3, , ,1, ,1, , , , ,1, , , , , , ,0,1,0,2,2,0,1,1,0,1,3,3,4,1,2,1,1,1,1,1,4,4,5,1,4,4,2,4,1,1,4,1,3,2,4, ,0,1,0,0,0,0,0,0,5,2,3,2,1,5,5,1, ,6,1,2, ,1, , , ,1,0, , , , 
1450,1,3,6,1,1, ,1, , , , , , , , ,5,5,5,5,1,1,1,3,3,3,1,0,0,0,0,0,11,5,5,1,5,5,4,1,3, , , , , , , , , ,5, ,1, , , , , , , , , , , ,2,2,1,0,0,0,0,3,0,0,3,0,0,3,1,3,1,1,1,1,1,1,3,4,4,4,5,3,4,4,4,1,1,5,1,4,1,1, ,0,1,0,0,0,0,0,0,5,2,4,2,1,1,1,1, ,6,2,2, ,1, , , , ,0, , ,1, 
1451,1,4,1,1,1, , , , ,1,1, , , ,2,4,4,3,3,1,1,1,3,3,3,0,0,0,0,0,1,11,4,1,3,4,5,3,2,1,1,1, ,1, ,1, , , ,8, ,1, , , , , , ,1, , , , ,1,4,2,2,1,0,0,3,0,3,3,1,0,3,4, ,3,3,4,3,3,3,3,4,3,5,4,3,5,4,3,4,5,2,2,3,5,5,no one (rip),1,0,0,0,0,0,0,0,4,5,5,5,5,4,6,1, ,6,2,2, ,2,1, , , ,0, , , , 
1452,1,3,8,1,1,1, , , , , , , , ,4,4,4,3,5,3,2,1,2,3,2,0,1,0,0,0,0,9,2,1,3,2,1,2,4,2, , ,1, , ,1,1, ,During walks with them,8, ,1,1, ,1, , , , , , , , , , , ,0,1,0,0,1,0,1,0,2,0,2,2,3,2,1,1,1,1,1,1,4,4,3,1,3,1,4,2,1,1,1,1,1,1,4, ,1,1,0,0,0,0,0,0,3,1,1,1,1,1,6,1, ,6,2,2, ,2,1, , , ,0, , , , 
1453,1,2,1, , , , , , , , , ,1,all the above,6,4,1,5,1,1,1,1,3,1,2,0,1,0,1,0,0,11,2,1,3,2,4,2,1,1, , , ,1, , , , , ,8, ,1, , , , , , , , , , , ,3,2,1,0,1,1,0,0,3,1,0,1,0,2,3,4,4,3,2,2,2,1,2,4,4,2,5,2,5,4,4,1,4,3,2,5,4,5,Maybe,0,0,0,0,0,0,0,1,4,5,4,4, ,4,1,1, ,6,2,2, ,1, ,1, , ,0, , , , 
1454,1,5,1,1,1,1,1, , , , , , , ,4,4,5,5,5,1,1,1,3,3,2,1,0,0,0,0,0,10,5,1,2,5,2,3,3,2, , ,1, ,1, , , , ,8, ,1,1, , , , , , , , , , ,2,5,2,2,0,2,0,2,0,0,1,3,0,4,2,3,4,3,2,1,3,2,4,4,4,4,2,4,4,1,2,3,2,3,3,2,3,1, ,0,1,0,0,0,0,0,0,2,4,2,1,4,2,1,2, ,6,1,1,for math,1, , , , ,0, , ,1,im Irish and American
1455,1,4,6,1,1, ,1, , , , , , , ,4,5,4,3,5,3,1,1,3,3,2,0,0,0,0,0,1,10,2,1,2,5,3,5,5,2, , ,1, , ,1, , , ,8, , ,1, ,1, , , , , , , , , , , , , , , , , , , , , , , , , , , , , , , , , , , , , , , , , , , , , , , ,999,999,999,999,999,999,999,999, , , , , , , ,2, ,6,3,2, ,2, , , , ,0, , ,1, I don't know
1456,1,3,1,1,1,1, , , , , , , , ,6,5,4,5,5,2,2,2,3,3,3,0,0,0,0,0,1,10,4,5,3,5,3,5,4,3,1, ,1, , , , , , ,2, , , , ,1, , , , , , , , ,3,3,1,1,1,1,2,0,0,0,2,0,0,3,3,3,1,1,1,1,2,1,4,4,4,5,1,4,4,1,4,1,1,5,1,5,1,4, ,1,0,0,0,0,0,0,0,2,3,2,2,2,2,6,2, ,6,2,2, ,2, , , ,1,0, , , , 
1457,1, , , , , , , , , , , , , , , , , , , , , ,3,3,3,0,0,0,0,1,0, , , , , , , , , , , , , , , , , , , , , , , , , , , , , , , , , , , , , , , , , , , , , , , , , , , , , , , , , , , , , , , , , , , , , , , ,999,999,999,999,999,999,999,999, , , , , , , ,1, ,6,2,1,I have academic support witch is doing my home work i might leave it though,1, , , , , , , , , 
1458,1,3,1,1, , ,1, , ,1, , , , ,2,5,2,1,1,5,3,1,2,2,1,1,0,0,1,0,0,8,1,1,3,1,1,2,1,4, , , , , , , ,1, ,7, , ,1, , , , , , , , , , , , , , , , , , , , , , , , , , , , , , , , , , , , , , , , , , , , , , , , , ,1,0,1,0,0,1,1,0,4,4,4,4,4,3, ,1, ,6,3,1,i have a hard time sitting down,1, , , , ,1, , ,1,"black, aftrican, and hispanic"
1459,1,3,1,1,1, , ,1, , , , , , ,4,4,5,3,5,2,3,2,3,3,2,1,0,0,0,0,0,0,5,1,1,3,1,3,1,1,1, ,1, , ,1, , , ,3, ,1, , , ,1, , ,1, , , , ,1,4,1,0,1,0,2,3,0,0,1,0,0,2, ,1,1,1,1,1,1,3,5,4,4,4,5,4,4,4,4,5,4,5,1,5,1,4, ,0,1,0,0,0,0,0,0,4,4,3,2,1,3,6,1, ,6,1,2, ,1, , , ,1,0, , , , 
1460,1,3,1,1,1, , ,1, , , , , , ,4,5,4,4,5,1,4,2,3,3,3,1,1,0,0,0,0,0,5,2,1,3,1,4,1,1, , , , , , ,1, ,I don't have a phone.,3, , , , , , , , , , , ,1,I don't have a phone.,1,2,1,0,0,1,3,0,0,0,0,1,1,2,1,1,1,1,1,1,1,3,2,4,2,1,1,2,4,1,4,1,1,5,1,5,1,4, ,1,1,0,0,0,0,0,0,1,2,3,3,3,5,1,1, ,6,1,2, ,1, , , , ,0, , ,1,Irish
1461,1,5,1,1,1, , , ,1, , , , , ,4,5,4,3,5,1,1,1,3,2,3,0,0,0,0,1,0,0,4,2,2,5,1,4,1,3,1, ,1, , ,1, , , ,4, ,1, , , , , , , , , , , ,2,4,1,0,0,0,2,1,0,1,1,0,0,3,3,3,1,1,1,1,1,1,4,3,4,4,1,3,4,2,3,1,1,4,2,3,1,6, ,1,0,0,0,0,0,0,0,3,2,2,2,2,4,2,2, ,6,2,2, ,1, , , ,1,0, , , , 
1462,1,3,3, , , ,1, , , , , , , ,6,3,2,1,4,5,4,5,2,2,3,1,0,0,0,0,0,8,5,1,4,5,1,3, ,2, , , , , , ,1, ,"When it is around 6pm or 7pm my father usually takes my devices,LIke my ps4 controller and my phone to make sure i dont stay up till like 2 am",8, , ,1, , , , , , , , , , , , , ,3,3,3,3,0,3,3,3,3,2,3,2,3,3,3,3,3,3,3,3,2,2,5,5,4,4,4,5,2,2,1,2,1,3,1, ,1,0,0,1,0,1,0,0,3,4,4,3,4,4,6,1, ,6,5,2, ,1, , , ,1,0, , , , 
1463,1,3,3,1, , , , , , , , , , ,6,4,5,4,5,1,5,3,1,2,2,0,1,1,1,1,0,8,1,1,2,3,1, ,1,3,1, , , , , , , , ,2, , , , , , , , ,1, , , , ,3,3,1,1,1,1,1,2,1,1,2,1,1,4,4,4,4,4,4,3,1,2,4,4,4,4,4,4,4,4,4,4,4,5,1,5,3,1, ,0,0,0,1,0,0,0,0,3,4,1,4,3,1,5,2, ,6,5,1, ,1, , , , ,0,1, , , 
1464,1,3,3, ,1, , , , , ,1, , , ,6,4,5,2,5,1,3,3,1,2,2,0,1,1,1,1,0,11,5,2,1,1,3,5,1,1,1, ,1, ,1,1, , , ,7, , , , ,1, , , , , , , , ,5,5,1,0,0,0,0,3,0,0,0,0,0,4,1,3,1,1,1,1,1,1,3,5,5,1,3,3,3,3,1,3,3,5,1,5,1,1, ,1,0,0,0,0,0,0,0,1,5,1,5,5,5,1,2, ,6,4,1, ,1, , , , ,0,1, , , 
1465,1,3,3,1, , , , ,1,1, , , , ,6,4,5,3,5,4,3,3,1,2,2,0,1,1,1,1,0,9,4,2,4,4,3,3,2,1, , ,1, , ,1, , , ,7,1,1,1, ,1, , , ,1, , , , ,2,4,2,1,2,0,1,2,1,2,0,0,1,3,4,3,2,2,2,1,2,2,3,2,3,5,1,5,1,3,5,1,2, , , , ,1, ,0,0,0,0,0,1,0,0,3,4,1,3,3,2,2,2, ,6,4,1, ,2, , , , ,0,1, , , 
1466,1,3,1,1,1, ,1, , , , , , , ,2,5,5,5,5,2,2,1,3,3,3,0,0,0,0,0,1,8,1,1,1,5,4,2,2,5,1, ,1, , , , , , ,5, ,1,1, , , , , , , , , , , , , ,1,1,0,0,0,0,1,0,0,0,1,1,1,1,1,1,1,1,1,1,4,4,4,1,4,2,2,4,4,4,5,1,5,1,1, ,1,0,0,0,0,0,0,0,5,5,2,5,2,2,1,2, ,6,4,2, ,1, , , ,1,0, , , , 
1467,1,2,1,1,1,1, , , , , , , , ,6,4,4,3,5,1,1,2,3,3,2,0,0,0,0,0,1,11,4,3,4,4,3,5,2,1, ,1,1, ,1,1, , , ,3, ,1,1, ,1, , , , , , , , ,3,4,1,0,2,0,3,0,0,1,1,0,1,3,2,3,1,1,1,1,2,2,3,4,4,4,1,4,2,3,3,1,4,5,1,5,1,5,I don't know,1,1,0,0,0,0,0,0,4,4,3,3,3,4,3,2, ,6,2,2, ,1, , , , ,0, ,1, , 
1468,1,3,2,1, ,1, , , , , , , , ,6,4,3,2,1,2,3,1,3,2,3,0,1,0,1,1,0,10,2,1,2,3,1,3,2,1,1, , , , ,1, , , ,7, , , , ,1, , , ,1, , , , ,2,3,2,1,2,0,2,2,0,1,2,1,0,2,3,3,1,3,2,2,3,2,3,4,3,5,5,5,5,2,5,5,3,3,1,3,2,4, ,1,0,0,0,0,0,1,0,3,3,4,3,4,2,6,2, ,6,2,2, ,2, , , , ,1, , ,1,I actually don't know
1469,1,3,4,1, , , , , ,1,1, , , ,6,5,3,4,5,3,2,1,3,2,3,1,0,0,0,0,0,11,5,4,3,5,5,3,3,1, , ,1, , ,1, , , ,4, , , ,1,1, , , ,1, , , , ,1,1,1,2,0,0,1,1,0,0,2,0,0,4,3,3,1,1,1,1,2,1,4,3,3,4,2,4,2,2,3,2,3,3,1,3,1,1, ,0,0,0,0,0,0,0,1,4,3,3,4,2,3,2,1, ,6,3,2, ,2, , , , ,0, , ,1,haitian
1470,1,3,1,1, , , , ,1, , , ,1,My cat,4,4,5,5,5,1,2,3,3,3,3,0,0,0,0,0,1,8,4,2,1,5,3,3,4,2,1, ,1, , ,1, , , ,8, ,1, , , , , , , , , , , ,3,2,2,0,1,0,1,0,1,1,1,0,1,3,2,2,1,1,1,1,1,2,4,3,4,4,1,1,1,3,2,1,2, ,1, , ,4, ,0,1,1,0,0,0,0,0,3,2,1,2,1,1,6,1, ,6,2,1,I am in Mrs. Healys class,1, , , ,1,0, , , , 
1471,1,3,3,1,1, , ,1,1, , , , , ,6,5,5,3,5,3,5,3,3,3,3,0,0,0,0,0,1,8,3,1,4,4,1,1,4,4,1, ,1, ,1,1, , , ,5, , , , ,1,1, , ,1, , , , ,1,3,2,2,3,3,2,1,0,0,1,3,2,4,4,4,4,4,4,3,3,3,3,3,3,4,5,4,3,4,3,5,5,3,4,2,5,1, ,1,0,0,0,0,0,0,0,5,5,5,5,5,5,5,1, ,6,3,2, ,2, , , , ,0,1, , , 
1472,1,3,1,1,1, ,1, , , , , , , ,5,4,5,4,5,2,4,1,3,3,2,0,0,0,0,0,1,9, ,1,3,4,2,4,4,5, , , , , , , ,1, ,8, ,1, , , , , , , , , , , ,2,3, ,0,0,2,1,1,1,0,1,1,0,4,3,4,1,1,1,2,2,2,4,2,3,4,1,1,2,4,3,1,1,5,1,3,2,1, ,1,0,0,0,0,0,0,0,4,3,2,3,4,3,2,1, ,6,2,2, ,1, , , ,1,0, , , , 
1473,1,3,1,1,1,1,1, ,1, , , , , ,6,5,4,4,5,1,2,1,2,3,2,0,0,0,0,0,1,11,5,2,2,4,2,2,3,2,1, ,1, ,1,1, , , ,4, ,1, , , ,1,1,1, , , , , ,1,3,1,0,1,0,1,1,0,1,0,0,0,1,3,2,2,2,2,1,2,1,1,4,4,5,1,3,4,4,4,1,1,4,2,3,3,1, ,1,0,0,1,0,0,0,0,4,3,3,3,3,3,3,1, ,6,2,2, ,1, , , , ,0, , ,1, 
1474,1,5,1,1,1, , , ,1, ,1, , , ,4,5,5,5,5,3,2,2,3,3,3,1,0,0,0,0,0,9,4,5,3,5,3,5,2,1,1, ,1, ,1, , , , ,4, ,1, , , , , , ,1, , , , ,2,1,1,0,0, , , , , , , , ,2,1,2,1,1,1,1,1,2,5,4,3,5,1,4,1,1,4,2,3,4,4,3,4,1, ,1,0,0,0,0,0,0,0,2,4,3,4,4,3,1,2, ,6,2,2, ,1, , , , ,0, , ,1, 
1475,1,3,1,1,1, ,1, ,1, , , , , ,5,5,3,3,5,1,1,1,2,2,2,0,0,0,0,0,1,0,4,3,3,5,4,3,1,2,1, ,1, , , , , , ,3, , ,1, ,1, , , , , , , , ,3,2,1,1,0,0,2,3,0,1,1,0,0,3,2,1,1,1,1,2,1,1,3,4,4,4,1,4,4,5,4,1,1,5,3,4,3,1, ,0,1,0,0,0,0,0,0,3,3,3,2,2,2,4,2, ,6, ,2, ,2, , , , ,0, , ,1, 
1476,1,3,1,1,1,1,1,1, , , , , , ,5,5,5,4,5,2,2,1,3,3,3,0,0,0,0,0,1,0,5,2,2,2,1,3,3,1,1, ,1, , ,1, , , ,5, ,1, , , , , , , , , , , ,2,3,1,0,0,0,3,0,0,0,0,0,0,3,2,2,1,1,1,1,1,1,3,4,4,4,1,3,4,2,4,2,3,3,2,3,2,1, ,1,1,0,0,0,0,0,0,4,4,4,3,2,2,2,2, ,6,1,2, ,1, , , , ,0, , ,1, 
1477,1,3,1,1,1, , , , , , , , , ,2,4,3,2,5,4,4,2,2,2,1,0,1,0,0,0,0,11,3,1,3,5,5,4,1,3, , ,1, , ,1, , , ,6, ,1, , ,1,1, , ,1,1, , , ,2,3,1,0,3,2,1,3,3,0,2,1,0,4,4,4,1,1,1,3,1,2,1,4,4,1,1,4,3,4,3,1,1,3,1,1,3,1, ,1,0,0,0,0,0,0,0,4,3,1,4,5,1,5,1, ,6,3,2, ,2, , , ,1,0, , , , 
1478,1,4,1,1,1, , , ,1, , , , , ,4,5,4,5,5,1,1,4,3,3,3,0,0,0,0,0,1,10,5,2,1,4,3,5,3,2,1, ,1, ,1, , , , ,3, ,1, ,1, ,1, , , ,1, , , , , , ,0,0,0,3,1,0,1,0,0,0,3,1,2,2,3,2,1,1,1,2,3,3,4,5,2,4,3,2,1,1, , , , , , ,0,1,0,0,0,0,0,0,5,5,2,4,1,4,3,1, ,6,1,2, ,1, , , ,1,0, , , , 
1479,1,3,1,1,1, , ,1,1, , , ,1,dog,4,5,4,3,5,2,2,2,3,3,3,0,0,0,0,0,1,0,4,2,3,3,3,3,1,3, , , , , , ,1, ,After homework when my friends play.,5, , , , ,1, , , , , , , , ,3,3,1,0,0,0,0,0,0,0,1,0,0,2,1,2,1,1,1,1,2,1,1,4,4,3,1,2,3,3,3,1,1,4,1,4,2,1, ,1,0,0,0,0,0,0,0,4,3,3,4,3,4,3,1, ,6,1,2, ,2, , , ,1,0, , , , 
1480,1,5,1,1, , , , ,1, , , , , ,6,4,5,2,5,4,2,1,2,3,2,1,0,0,0,0,0,8,2,3,4,5,1,5,1,4, , , , ,1, , , , ,7, , ,1, ,1, , , ,1, , , , ,2,3,1,0,2,0,2,0,0,0,0,0,0,3,2,2,1,1,1,1,1,1,5,4,3,1,1,5,1,5,5,1,2,5,1,5,1,2, ,0,0,0,0,0,0,0,1,5,2,5,1,1,1,6,2, ,6,4,1, ,2, , , , ,1, , ,1,puerto rico
1481,1,1,1,1,1, ,1, , , , , , , ,3,4,1,2,4,1,1,5,3,3,2,0,0,0,0,0,1,11,4,1,2,1,1,2,3,5, , , , , , , ,1, ,8, , ,1, ,1, , , ,1,1, , , ,1,2,1,0,0,1,2,3,0,1,2,3,1,3,4,4,1,1,1,2,2,2,4,1,1,5,1,1,3,4,3,1,1,2,3,1,4,1, ,1,1,0,0,0,0,0,1,5,4,4,3,4,4,4,1, ,6,2,2, ,1, , , ,1,0, , , , 
1482,1,2,1,1,1, , ,1, , , , , , ,5,4,5,4,4,1,2,1,3,2,2,0,1,0,0,0,0,0,4,1,1,4,1,3,1,3,1,1,1, , , , , , ,2, ,1, , , , , , , , , , , ,2,5,1,0,0,0,0,0,0,0,0,0,0,1,3,3,1,1,1,1,1,1,1,2,3,4,5,4,4,4,3,5,2,4,1,4,2,6, ,1,1,0,0,0,0,0,0,4,3,2,3,3,3,2,1, ,6,1,2, ,2, , , , ,0, , ,1,American
1483,1,3,3,1,1, , , ,1, , , ,1,My dog too,5,5,5,4,5,1,2,2,3,2,2,0,0,0,0,0,1,8,5,4,3,1,4,5,2,3,1, ,1, ,1,1, , , ,1, ,1, , , , , , , , , , , ,1,1,2,2,3,3,0,1,1,3,1,1,1,4,3,4,1,1,1,1,2,1,4,1,1,5,5,5,5,5,5,5,5,5,1,4,2,5,i didn't understand this question,1,0,0,0,0,0,0,0,5,4,5,5,5,4,1,2, ,6,2,2, ,2, , , , ,0,1, ,1,BRAZIL
1484,1,3,1,1,1,1, , , , , , , , ,4,5,4,5,5,2,1,1,3,2,2,0,0,0,0,1,0,11,5,1,2,5,3,5,3,2,1, ,1, , , , , , ,5, ,1, , , , ,1, , , , , , ,1,1, ,0,2,0,0,1,0,0,0,0,0,3,3,3,2,2,2,1,2,1,3,4,4,3,1,3,4,1,2,1,1,1,1,1,1,1, ,1,1,0,0,0,0,0,0,4,2,2,4,2,4,2,2, ,6,2,2, ,1, , , ,1,0, , , , 
1485,1,5,1,1,1, , , ,1,1, , , , ,3,5,5,5,5,1,1,1,3,3,3,0,0,0,0,0,1,11,3,1,2,4,4,5,3,2,1, ,1, , , , , , ,8, ,1, , , ,1, , , , , , , ,3,3,1,1,0,0,1,2,0,0,0,0,0,2,3,2,1,1,1,1,2,1,1,4,4,5,5,3,3,3,3,5,5,5,1,5,1,1, ,0,0,0,0,0,0,0,1,4,2,3,4,1,4,2,1, ,6,1,2, ,1, , , ,1,0, , , , 
1486,1,3,1,1, , ,1, , , , , ,1,step father,6,5,5,3,5,3,1,1,2,2,2,1,0,0,0,0,0,10,3,1,3,1,1,3,3,3, , , , , , , ,1, ,8, , , , , , , , , , , ,1,found out my self, , , ,0,0,0,0,3,0,0,0,0,0,1,1,3,1,1,1,1,1,1, , , , , , , , , , , , , , , , , ,999,999,999,999,999,999,999,999, , , , , , ,2,1, ,6,4,1,i have an iep for not focusing,1, , , , ,0, , ,1,american
1487,1,4,1,1,1, , , ,1, , , , , ,4,5,5,4,5,1,1,1,3,3,2,0,0,0,0,0,1,11,4,3,2,5,4, ,1,1, , ,1, , , , , , ,3, ,1, , , , , , , , , , , , , , , , , , , , , , , , , , , , , , , , , , , , , , , , , , , , , , , , , , ,999,999,999,999,999,999,999,999, , , , , , , ,2, ,6,1,1, ,2, , , , ,0, , ,1,American
1488,1,3,1,1,1,1, , , , , , , , ,4,4,5,3,5,1,2,3,3,2,2,0,0,0,1,0,0,0,3,2,3,3,1,3,1,1,1,1,1, ,1,1, , , ,2, ,1,1, , ,1, , , , , , , ,1,4,2,1,2,2,1,2,1,0,2,2,1,3,3,3,3,4,3,2,2,2,1,4,4,5,5,3,3,3,4,2,5,3,2,2,2,1, ,1,1,0,0,0,0,0,0,5,5,5,4,5,5,1,2, ,6,1,2, ,1, , , ,1,0, , , , 
1489,1,4,1,1,1, , ,1, , , , , , ,4,5,4,5,5,2,2,1,3,3,3,0,0,0,0,0,1,11,4,4,1,5,4,5,4,3, , ,1, , ,1, , , ,3, ,1, , ,1, , , ,1, , , , ,3,4,1,1,1,0,2,0,1,1,0,1,1,4,4,4,4,4,4,2,3,2,3,4,4,4,3,5,4,1,3,4,3,4,3,3,3,1, ,1,1,0,0,0,0,0,0,4,5,4,4,2,4,2,2, ,6,1,2, ,1, , , , ,0, , ,1,I don’t really know
1490,1,5,4,1, ,1, , ,1, , , ,1,little sister little brother,4,5,5,3,5,3,1,1,2,2,2,0,0,0,1,1,0,9,4,1,1,3,4,5,4,3, ,1, ,1,1,1, , , ,8, ,1,1, ,1, ,1, , , , , , ,3,3,1,3,2,2,1, ,2, ,3,3,1,4,4,4,4,4,3,3,3,3,4,1,1,1,1,1,1,1,1,2,1,1,4, ,3,1, ,0,0,0,0,0,0,0,1,1,5,5,3,5,5,5,2, ,6,4,1, ,1, , , , ,0, , ,1,haitian
1491,1,4,1,1, , , , , , , , , , ,2,4,3,2,5,1,3,4,2,3,2,0,0,0,0,0,1,8,1,2,5,5,5,5,4,1,1, ,1, ,1,1, , , ,7, ,1, , , , , , , , , , , ,3,4,2,2,3,3,2,0,0,0,0,2,3,4,3,4,1,1,1,2,3,3,4,1,4,5,1,3,1,3,2,1,4,2,1,3,4,2, ,0,1,0,0,0,0,0,0,1,3,5,2,1,2,3,2, ,6,4,2, ,1, ,1, , ,0, , , , 
1492,1,5,1,1,1,1, ,1, , , , , , ,2,5,5,5,5,2,2,1,3,3,2,0,0,0,0,0,1,10,5,5,2,5,5,5,1,3, , , , , , , ,1, ,8, ,1, , , , , , , , , , , ,1,3,1,1,0,0,0,3,0,0,0,0,0,4,3,4,3,3,3,1,1,1,3,4,4,4,1,4,1,1,4,2,1,5,1,4,1,1, ,0,0,0,0,1,1,1,0,5,2,2,2,2,2,1,2, ,6,2, , ,2, , , ,1,0, , , , 
1493,1,4,1,1,1, , ,1, , , , , , ,4,5,5,5,5,1,2,1,3,3,3,0,0,0,0,0,1,0,5,3,1,5,5,5,1,1,1,1,1, ,1,1, , , ,1, ,1,1, ,1,1, , , , , , , , , , ,0,0,0,0,0,0,0,0,0,0,1,1,1,1,1,1,1,1,1,3,4,4,4,5,3,4,5,4,5,3,5,2,4,1,1, ,1,0,0,0,0,0,0,0,2,2,2,3,2,2,1,2, ,6,1,2, ,1, , , ,1,0, , , , 
1494,1,3,1,1,1, , , , , , , ,1,Twin brother,4,5,5,5,5,1,1,1,3,3,3,0,0,0,0,0,1,0,4,1,1,5, , , , ,1, ,1, , ,1, , , ,2, , , , , , , , , , , , , ,4,4,1, , , , , , , , , , , , , , , , , , , ,1,4,3,5,5,3,4,1,4,5,5,5,1,5,1, , ,1,1,0,0,0,0,0,0,5,2,1, ,1,3, ,2, ,6,1,2, ,1, , , ,1,0, , , , 
1495,1,2,6,1,1, ,1,1, , , , , , ,6,3,5,1,4,2,3,3,3,2,2,0,0,0,0,0,1,9,2,1,3,4,2,2,4,4, , ,1, , ,1, , , ,5, , ,1, ,1, , , ,1, , , , ,2,3,1,3,3,3,0,2,3,3,3,3,3,3,3,2,1,1,2,3,3,3,3,4,4,5,2,3,3,1,2,2,2,2,2,1,3,2, ,1,1,0,0,0,1,1,0,5,4,2,3,5,3,2,1, ,6,3,2, ,1, ,1, , ,0, , , , 
1496,1,3,3,1,1,1, , , , , , , , ,1,4,4,5,5,2,2,1,3,2,2,1,0,0,0,0,0,8,3,1,4,4,1,3,5,5,1, , , , , , ,1, ,8, , ,1, ,1, , , , , , , , , , , ,0,1,0,0,3,0,0,0,0,0,3,2,2,2,2,2,1,2,1, , , , , , , , , , , , , , , , , ,1,0,0,0,0,0,0,0,3,3,3,3,3,3,6,2, ,6,2,2, ,1, , , , ,0,1, , , 
1497,1,5,1,1,1, , ,1, , , , , , ,5,5,5,1,2,3,1,2,3,3,2,0,0,0,0,0,1,8,3,1,2,1,2,1,3,5,1, ,1, , , , , , ,8,1, , , , , , , , , , , , ,3,4,3,1,2,3,0,2,0,3,2,0,1,1,1,1,1,1,1,1,1,2,4,1,4,4,1,4,2,4,3,1,4,3,1,1,5,1, ,1,1,0,0,0,0,0,1,5,1,1,5,1,5,4,1, ,6,2,2, ,2, , , , ,1, , ,1,latin black
1498,1,4,1,1,1,1, , , , , , ,1,Pet(Dog),4,5,4,4,5,3,2,1,3,3,3,0,0,0,0,0,1,9,4,2,3,5,5,5,1,1, , ,1, , , , , , ,5, ,1, , , , , , , , , , , ,2,3,1,0,0,0,0,1,0,0,0,0,0,3,3,3,1,1,1,1,1,1,3,4,4,4,1,4,4,2,4,1,1,4,1,4,3,1, ,0,1,0,0,0,0,0,0,4,3,2,2,1,3, ,1, ,6,1,2, ,1, , , , ,0, , ,1,American
1499,1,3,1,1,1, , ,1,1, , , , , ,5,5,4,4,5,2,1,1,3,3,2,0,0,0,0,0,1,10,5,1,2,4,1,1,2,4,1, ,1, , , , , , ,4,1, ,1, ,1,1, , , , , , , ,2,4,1,0, ,0,0,0,0,0,3,0,3,3,2,2,1,2,1,1,1,1,2,4,3,4,1,4,3,4,4,1,4,4,1,4,2,1, ,1,1,0,0,0,0,0,0,4,2,4,4,1,3,1,1, ,6,2,1,i think i go will a cansoler once a week,1, , , ,1,0, , , , 
1500,1,4,1,1,1, , ,1, , , , , , ,5,5,5,5,5,1,1,3,3,3,3,0,0,0,0,0,1,10,3,2,1,4,2,4,2,3,1, ,1, , ,1, , , ,6, ,1, ,1, , , , , , , , , ,3,2,2,0,1,0,0,2,1,0,1,1,0,3,4,3,2,1,3,2,3,3,2,4,4,4,1,5,3,4,4,2,2,4,2,2,2,1, ,1,1,0,0,0,1,0,0,4,4,3,3,2,3,1,1, ,6,1,2, ,2, , , ,1,0, , , , 
1501,1,3,1,1,1, , ,1, , , , , , ,5,5,5,5,5,2,1,1,3,3,3,0,0,0,0,0,1,11,5,1,3,4,2,2,2,1,1, ,1, , , , , , ,8, ,1, , , ,1, , , , , , , , , , ,0,0,0,2,0,0,0,0,0,0,1,1,1,1,2,1,1,1,1,1,4,3,4,1,3,3,1,3,1,1,4,2,4,1,1, ,1,0,0,0,0,0,0,0,3,1,1,2,1,1,5,2, ,6,1,2, ,2, , , ,1,0, , , , 
1502,1,3,1, ,1, ,1, , , , , , , ,3,4,5,3,5,4,3,2,3,2,2,0,0,0,1,0,0,10,4,2,3,4,3,5,4,2,1, , , , , ,1, ,during family time,6, ,1,1, ,1,1,1, , , , , , ,4,3,1,1,3,3,2,2,2,3,2,2,1,2,3,2,3,2,1,2,2,1,2,3,4,3,2,3,4,2,4,4,4,4,4,3,3,2, ,0,1,0,1,0,0,0,0,5,2,2,5,4,4,1,1, ,6,2,2, ,1, , , ,1,0, , , , 
1503,1,3,1,1,1, , , ,1, , , , , ,4,5,5,5,5,1,2,3,3,3,2,0,0,0,0,0,1,11,4,3,1,5,1,5,1,2,1, ,1, , ,1, , , ,7, ,1, , , , , , , , , , , ,3,2,3,3,2,3,2,2,3,0,2,2,2,1,3,3,1,1,1,2,3,3,1,4,4,3,5,4,3,3,4,5,4,4,3,5,3,4, ,1,1,0,0,0,0,0,0,5,5,4,5,5,5,1,1, ,6,2,2, ,1, , , ,1,0, , , , 
1504,1,3,1,1,1, , , ,1, , , , , ,5,4,5,3,5,1,1,2,2,2,2,0,1,0,0,0,0,12,4,3,2,4,5,4,1,3,1,1,1, , ,1, , , ,3, ,1, , ,1, , , ,1, , , , ,3,2,1,0,1,1,1,3,0,1,2,1,0,2,2,3,3,3,2,1,2,2,4,4,4,4,1,4,3,3,4,1,3,3,1,3,3,1, ,0,1,0,0,0,0,0,0,5,4,3,3,4,4,2,1, ,6,2,2, ,2, , , ,1,0, , , , 
1505,1,3,1,1,1, , , , , , , , , ,4,5,5,4,5,2,3,2,3,3,3,0,0,0,0,0,1,9,4,1,2,3,1,1,2,1,1, ,1, , , , , , ,4, ,1,1, ,1, , , , , , , , , , , ,0,1,0,0,2,1,0,0,0,1,2,1,1,1,1,1,1,1,1,4,4,4,4,5,4,5,5,4,5,5,1,1,1,1,1, ,1,1,0,0,0,0,0,0,5,4,1,1,1,1,1,2, ,6,1,2, ,1, ,1,1, ,0, , , , 
1506,1,5,6,1,1,1,1, , , ,1,1,1,nephews,6,5,2,3,5,4,4,1,2,3,1,0,0,0,1,0,0,8,2,1,1,4,2,4,2,1, , , , , , , ,1, ,8, , , , ,1, ,1, , , , , , ,1,1,1,1,2,1,1,3,0,1,2,0,1,4,3,4,2,3,3,1,2,1,4,4,4,1,1,4,3,4,3,4,4,4,2,5,3,4, ,1,0,0,0,0,0,0,0,1,2,3,4,4,3,6,2, ,6,4,2, ,2, ,1, , ,1,1, , , 
1507,1,3,4,1,1, , ,1, ,1, , , , ,2,5,5,5,5,2,1,1,2,2,2,1,0,0,0,0,0,11,5,5,1,5,5,5,5,1, ,1,1, , , , , , ,1, , , , , , , , ,1, , , , ,1,5,1,0,0,0,3,0,0,3,0,0,0,4,3,4,1,1,1,2,1,1,5,4,1,5,5,5,5,5,4,5,5,5,1,1,5,3, ,1,0,0,0,0,0,0,0,4,1,3,4,1,3,3,2, ,6,2,1,I need a little but not to much i understand evrything.,1, , , , ,1,1, ,1,El Salvador
1508,1,3,6,1,1, , , ,1, , , , , ,2,4,5,2,5,2,3,4,3,3,3,0,0,0,0,0,1,9,4,1,1,1,1,1,3,1,1, ,1, , ,1, , , ,6, , , , , ,1, , ,1, , , , ,2,4,2,0,1,3,0,2,3,1,3,2,0,3,2,3,1,1,1,2,2,2,2,4,4,5,5,4,4,4,4,4,4,3,2,3,4,1, ,1,1,0,1,0,0,0,0,5,4,3,4,4,5,5,2, ,7,1,2, ,2, ,1, , ,0, , , , 
1509,1,3,1,1,1, , ,1,1, , , , , ,5,5,5,5,5,1,1,1,3,3,3,0,0,0,0,0,1,12,5,5,2,5,1,5,1,2,1,1,1, ,1,1, , , ,2, ,1, , , ,1, , , , , , , ,4,4,1,0,0,0,0, ,0,0,0,0,0,2,2,1,1,1,1,1,1,1,2,4,3,5,5,4,2,5,4,5,3,5,1,4,1,1, ,0,1,0,0,0,0,0,0,3,2,4,1,1,1,1,2, ,7,1,2, ,2, ,1, , ,1,1, , , 
1510,1,3,1,1,1, , , , , , , , , ,2,4,3,2,4,1,1,4,3,3,3,0,0,0,1,0,0,14,2,1,2,2,1,2,2,2,1, , , ,1,1, , , ,8,1, , , , , , , , , , , , , , , , , , , , , , , , , , , , , , , , , , , , , , , , , , , , , , , , , , , ,999,999,999,999,999,999,999,999, , , , , , , ,1, ,7,2,2, ,2, , , ,1,0, , , , 
1511,1,1,1,1, , , , , , , , , , ,2,5, , , , , , ,1, , ,1,0,1,0,0,0, , , , , , , , , , , , , , , , , , , , , , , , , , , , , , , , , , , , , , , , , , , , , , , , , , , , , , , , , , , , , , , , , , , , , , , ,999,999,999,999,999,999,999,999, , , , , , , ,2, ,7,2,2, ,1, , ,1, ,0, , , , 
1512,1, , , , , , , , , , , , , , , , , , , , , , , , ,999,999,999,999,999,999,10, , , , , , , , , , , , , , , , , , , , , , , , , , , , , , , , , , , , , , , , , , , , , , , , , , , , , , , , , , , , , , , , , , , , , , ,999,999,999,999,999,999,999,999, , , , , , , ,2, ,7, , , , , , ,1, , , , , , 
1513,1,4,1,1, , , ,1,1, , , , , ,4,5,4,3,5,1,1,1,1,3,2,0,0,0,0,0,1,8,4,2,2,3,4, , ,2,1, , , , , , , , ,8, , , , , ,1, , ,1,1, , , ,2,2,2,2,2,0,1,1, ,1,0,0,0,3,2,2,1,3,2,2,1,2,3,4,4,5,5,4,2,3,3,5,2,4,2,4,3,1, ,0,0,0,0,0,0,0,1,4,3,3,1,2,3,5,2, ,7,2,2, ,2,1,1,1,1,1,1,1, , 
1514,1,2,6,1, ,1, ,1, , , , , , ,1,3,5,2,5,2,3,2,3,2,3,0,1,0,0,0,0,11,4,4,5,4,3,4,2,1,1, ,1,1, ,1, , , ,2, ,1, , , ,1, , , , , , , ,1,4,1,1,1,3,0,2,1,2,2,3,0,3,3,3,1,1,1,3,2,3,3,1,4,3,1,4,2,3,2,1,5,4,2,3,2,2, ,0,0,0,0,0,0,0,1,4,4,1,3,5,3,5,2, ,7,1,2, ,1, ,1, , ,1,1, , , 
1515,1,4,1,1,1,1, , , , , ,1, , ,5,5,5,3,4,1,2,1,3,3,2,1,1,0,0,0,0,10,3,1,2,4,2,1,4,1,1,1,1, ,1,1, , , ,4, , ,1, ,1, , , ,1, , , , ,2,4,2,1,3,1,2,2,0,2,2,1,3,2,3,3,3,3,3,2,2,2,2,4,4,4,5,4,1,4,3,5,5,3,2,4,3,1, ,1,1,0,0,1,1,1,0,4,2,2,1,2,4,2,1, ,7,2,2, ,2, , , ,1,0, , ,1, 
1516,1,3,1,1,1, , ,1, , , , , , ,6,5,4,1,5,1,2,1,3,2,2,0,0,0,1,0,0,10,4,1,2,1,1,3,5,2,1, ,1, , ,1, , , ,8, ,1, , , ,1, , , , , , , ,1,3,2,0,0,0,0,3,0,0,1,0,0,3,4,1,1,1,1,2,1,1,4,3,3,4,1,1,1,3,1,1,1,4,1,3,1,2, ,1,0,0,0,0,0,0,0,1,1,1,1,1,1,6,2, ,7,1,2, ,1, , , , ,0,1, , , 
1517,1,3,1,1,1, , ,1,1, , , , , ,3,5,5,5,5,3,2,1,3,2,3,0,0,0,0,0,1,8,5,1,5,5,1,2,4,5,1, ,1, ,1, , , , ,8, , , , , , , , , , , ,1, , , , ,0,0,0,2,0,0,0,0,0,0, , , , , , , , , , , , , , , , , , , , , , , , , , ,999,999,999,999,999,999,999,999,1,1,1, , , ,6,1, ,7,4,1,yep,2, , , , ,0, , ,1,just plain old white
1518,1,2,1,1, , ,1, ,1, , , , , ,2,2,4,2,5,2,4,4, ,3, ,0,0,0,0,0,1,11,4,1,2,1,1,1,1,3,1, , , , ,1, , , ,8, , , , , , , , , , , ,1,Bad experiences on the internet,1,3,1,0,1,0,0,2,0,0,1,0,0,4,4,4,1,1,1,3,3,3,1,3,4,2,1,4,1,4,4,5,5,1,1,1,4,2, ,0,1,0,0,0,0,0,0,5,5,1,1,5,5,5,1, ,7,2,2, ,2, , , , ,1,1, , , 
1519,1,3,6,1,1, , , ,1, , , , , ,5,5,5,4,5,3,2,1,3,3,3,0,0,0,0,0,1,0,5,4,3,5,3,5,3,1,1,1,1, ,1,1, , , ,2, , ,1, ,1, , , ,1,1, , , ,1,1,2,1,0,0,3,0,0,0,0,0,2,3,4,2,1,2,1,2,2,1,1,4,4,4,2,3,5,3,4,2,3,5,2,5,1,4, ,1,1,0,0,0,0,0,0,4,4,4,5,3,4,1,2, ,7,2,2, ,2,1, , , ,0, , , , 
1520,1,3,2,1, , , ,1, , , , , , ,2,5,4,5,4,2,2,2,1,3,2,0,1,0,0,0,0,14,4,2,2,5,4,5,2,2,1, ,1, , , , , , ,2, ,1, ,1, ,1, , , , , , , ,3,3,1,0,2,0,0,0,0,1,0,0,2,1,3,4,1,1,1,2,2,2,4,3,3,3,2,3,3,2,3,2,2,5,1,4,1,2, ,1,0,1,0,0,1,0,0,3,3,3,3,3,3,3,2, ,7,1, , ,2, , , , ,1,1, , , 
1521,1,2,1,1, , , , , , , , ,1,i have 10 older brothers and sisters,5,2,1,1,3,1,5,5,2,2,3,1,0,0,0,0,0,9,1,1,5,2,1,4,2,1, , ,1, , ,1, , , ,6, , ,1, ,1, , , ,1,1, , , ,2,5,1,3,1,3,2,0,3,3,3,2,0,2,3,4,1,1,1,1,2,3,4,1,5,5,1,5,2,5,5,1,5,3,4,2,4,2, ,0,0,0,0,0,0,1,0,3,5,2,3,5,5,5,3,them/they,7,4,2, ,2, ,1, , ,0, , ,1,from barbdos
1522,1, , , , , , , , , , , , , , , , , , , , , ,2,3,3,999,999,999,999,999,999, , , , , , , , , , , , , , , , , , , , , , , , , , , , , , , , , , , , , , , , , , , , , , , , , , , , , , , , , , , , , , , , , , , , , , , ,999,999,999,999,999,999,999,999, , , , , , , ,1, ,7,2,1, ,1, , , , , , , , , 
1523,1,3,1,1, , ,1, , ,1, , , , ,2,4,3,4,5,3,2,1,2,1,1,0,1,0,0,1,0,10,5,1,5,3,1,1,4,3, , ,1, , , ,1, ,While doing homework,4, ,1,1, , , , , , , , , , , , , ,0,2,0,1,1,0,1,1,0,1,2,1,2,1,1,1,1,2,2,4,2,4,3,1,2,2,4,2,1,1,5,1,4,1,2, ,1,1,0,0,0,0,0,0,1,4,2,2,2,2,4,2, ,7,2,2, ,2,1, , , ,0, , , , 
1524,1,3,6, ,1, , , , , , , ,1,dads girlfirend,2,5,3,3,3,1,3,1,1,2,2,1,0,0,0,0,0,8,1,1,3,5,2,4,3,2, , ,1, ,1, , , , ,8, , ,1, ,1, , , , , , , , , , , , , , , , , , , , , , , , , , , , , , , , , , , , , , , , , , , , , , , ,999,999,999,999,999,999,999,999, , , , , , , ,2, ,7,4,1,yes becuase i have trouble learning,1, ,1,1,1,0,1,1, , 
1525,1,3,6,1,1, , ,1,1, , , , , ,4,5,5,5,5,1,1,1,3,3,3,0,0,0,0,0,1,12,5,3,1,5,3,5,2,1, , ,1, , ,1, ,1, ,3, ,1, , ,1,1, , , , , , , ,3,1,1,0,0,0,0,3,0,0,0,0,0,3,2,2,1,1,1,2,2,1,1,4,3,1,1,1,4,1,4,1,3,5,1,3,1,6, ,0,0,0,1,0,1,0,0,2,1,1,2,1,4,1,2, ,7,1,2, ,2,1, , , ,0, , , , 
1526,1,3,1,1,1, , ,1, , , , , , ,4,5,5,5,5,1,1,1,2,3,3,1,0,0,0,0,0,12,5,5,3,5,1,3,1,1,1, ,1, , ,1, , , ,3,1, , , , , , , , , , , , ,1,1,1,0,0,0,0,3,0,0,3,0,0,1,1,1,1,1,1,1,1,1,2,4,3,4,5,5,4,5,4,5,5,5,1,3,1,1, ,0,0,0,0,0,0,0,1,3,2,2,2,1,3,6,1, ,7,2,1,Speech and academic Support,2, , , , ,0, , ,1,Italian
1527,1,1,2, , , , , , ,1, , ,1, ,6,5,5,3,4,5,4,3,2,3,3,0,0,0,0,0,1,8, , , , , , , , , , ,1, , , , , , ,8, , ,1, , , , , , , , , , , , , , , , , , , , , , , , , , , , , , , , , , , , , ,5, , , , , , , , , , , ,999,999,999,999,999,999,999,999, , , , , , , ,1, ,7,6,2, ,2, , , , ,1,1, , , 
1529,1,3,1,1, ,1,1, ,1, , , , , ,3,5,5,3,5,1,2,1,3,3,2,1,0,0,1,0,0,8,4,1,3,2,1,1,3,5,1, ,1, ,1,1, , , ,4, , ,1, , ,1, , , , , , , ,1,1,1,0,0,0,0,3,0,0,3,0,0,3,1,1,1,1,1,1,1,1,4,2,2,3,1,3, ,2,2,2,2,4,1,4,1,1, ,1,1,0,0,0,1,0,0,1,1,1,1,1,1,6,1, ,7,2,1,in a task program,2, ,1, , ,1,1, , , 
1530,1,4,1,1, ,1, , , , , , , , ,2,3,4,1,5,3,3,1,3,2,1,0,1,0,0,1,0,8,5,1,4,4,2,2,3,3, , , , , , , ,1, ,7, , ,1, , , , , , , , , , , , , ,2,2,3,3,1,1,2,2,0,2, , , , , , , , , , , , , , , , , , , , , , , , , , ,0,0,0,1,0,0,0,0,4,4,5,4,3,3,5,2, ,7,3,2, ,1, ,1,1, ,0, , ,1,"Irish, Italian"
1531,1,5,3,1, , , , , , , , , , ,4,5,5,5,5,5,5,1,3,3,3,1,0,0,0,0,0,9,5,1,4,4,5,5,3,4, ,1, , , , , , , ,1, ,1, , ,1, , , ,1, , , , ,2,1,1,0,0,0,0,3,0,0,0,0,0,4,1,1,1,1,1,1,1,1,1,4,4,4,1,3,3,3,3,2,3,4,2,5,2,1, ,1,0,0,1,0,0,0,0,1,4,1,4,1,3,1,2, ,7, ,2, ,2, , , ,1,0, , ,1, 
1532,1,3,1,1,1,1, , ,1, , , , , ,4,5,5,5,5,3,1,1,3,3,3,0,0,0,0,0,1,11,4,1,1,4,4,4,2,3,1, ,1, , ,1, , , ,8, , ,1,1,1, , , , , , , , ,3,3,1,0,0,0,3,1,0,0,0,0,0,4,2,2,3,3,2,1,1,1,2,4,4,4,1,3,3,1,3,2,1,4,4,3,2,1, ,1,0,0,0,0,0,0,0,3,4,4,3,2,3,5,2, ,7,2,2, ,1, , , , ,0, , ,1,None
1533,1,5,1,1, , , , , , , , , , ,4,5,5,5,5,3,1,1,3,3,3,0,0,0,0,0,1,9,5,5,1,5,1,2,5,5, , , , , , , ,1, ,8, ,1,1, ,1, , , , , , , , , , , , , , , , , , , , , ,2,2,2,2,2,2,1,2,1,1,4,4, , , , , , ,4, , , , , , , ,999,999,999,999,999,999,999,999,5,5,1,3,1,1,1,2, ,7,2,2, ,2, ,1, ,1,0, , , , 
1534,1,3,1, , , , , , , , , , , ,6,5,4,3,5,2,2,1,1,1,1,0,0,0,0,0,1,8,1,1,1,1,1,1,1, , , , , , , , ,1, ,6, ,1, , , ,1, , ,1, , , , ,2,3, , , , , , , , , , , , , , , , , , , , , , , , , , , , , , , , , , , , , ,999,999,999,999,999,999,999,999, , , , , , ,2,1, ,7,6,2, ,1, , , ,1,0, , , , 
1535,1,4,1,1,1, , ,1, , , , , , ,1,4,4,3,5,4,3,2,3,3,2,0,0,1,0,0,0,10, ,1,3,3,2,1,4,3, , ,1, , , , , , ,8,1, , , , , , , , , , , , ,3,3,2,1,0,0,1,1,1,1,0,1,1,2,2,4,1,2,1,1,2,1,2,3,4,4,5,3,3,3,3,2,2,2,3,4,3,2, ,1,0,0,0,0,1,0,0,3,3,2,3,3,4,2,1, ,7,2,2, ,2, , , ,1,0, , , , 
1536,1,3,1,1,1, , , , , , , , , ,4,5,5,4,5,1,1,1,3,3,3,0,0,0,0,0,1,11,4,1,1,3,1,2,4,3,1, ,1, , ,1, , , ,7,1, , , , , , , , , , , , ,2,2,1,0,0,0,0,1,0,1,0,0,1,1,2,1,1,1,1,1,1,1,1,4,4,5,1,3,1,2,4,1,1,5,1,4,1,1, ,1,1,0,0,0,0,0,0,1,2,1,1,1,2,2,1, ,8,1,2, ,2, , , , ,0, ,1, , 
1537,1,3,1,1, , , ,1, , , , ,1,step father, ,5,5,5,5,1,1,1,3,3,3,1,0,0,0,0,0,10,5,2,2,5,2,3,3,3, , , , , , , , , , , , ,1,1, , , , , , , , , , , , ,0,0,0,0, ,0,0,0,0,0,3,3,3,2,2,2, , , ,3,4,4,4,1,4,3,3,3,2,3, , , , ,1, ,1,0,0,0,0,0,0,0,4,3,3,3, , , ,2, ,8,2,2, ,1, , , ,1,0, , , , 
1538,1,3,1,1, ,1, , , ,1, , , , ,5,4,3,2,4,2,4,4,2,2,2,0,0,0,0,0,1,9,4,1,2,4,1,4,2,2, , , , , , , ,1, ,8, , , , ,1, , , , , , , , ,1,1,1,0,2,1,1,3,0,0,1,1,1,4,3,2,3,3,2,2,3,2,1,2,4,3,1,2,5,2,5,1,1,3,4,3,4,1, ,1,1,0,0,0,0,0,0,4,2,2,2,3,5,1,1, ,8,5,1, ,2, , , ,1,0, , , , 
1539,1,3,3, , , , , , , , , ,1,Minha mae e meu tio,1,4,1,1,1,3,3,1,3,3,3,1,0,0,0,0,0,11,5,1,5,5,3,5,5,5, , , , ,1, , , , ,8, ,1, ,1, , , , , , , , , ,1,5,1,2,3,1,3,0,2,1,1,0, ,4,2,4,4,4,4,1,1,1,4,3,4,5,5,4,4,4,4,1,4,2,5,5,5,1, ,1,0,0,0,1,0,0,0,4,4,3,4,4,4,1,1, ,8,2,2, ,2, , , , ,0,1, , , 
1540,1,3,1,1, , , ,1, , , , , , ,4,4,4,4,5,2,3,2,3,3,3,0,0,0,0,0,1,11,5,1,3,3,1,3,4,2,1, ,1, , , , , , ,8, , , , , , , , ,1, , , , ,2,3, ,3,2,2,0,0,1,0,2,3,3,2,2,2,1,1,1,2,2,2,3,3,4,5,5,3,2,3,3,5,5,3,4,2,3,1, ,1,1,0,0,0,0,0,0,4,4,4,4,4,4,3,1, ,8,2,2, ,2, , ,1, ,1,1, , , 
1541,1,1,1,1, , ,1,1, , , , , , ,1,3,1,1,1,5,5,1,2,2,2,999,999,999,999,999,999,8,1,1,2,1,1,1,5,4, , , , , ,1, , , ,8,1, , , , , , , , , , , , ,1,3,4,3,3,3,0,3,0,3,3,3,3,4,4,4,1,1,1,1,1,3,3,3,1,1,1,1,1,5,1,1,1,1,5,1,5,2, ,0,0,0,0,1,0,0,0,5,1,1,1,5,1,6,2, ,8,3,2, ,2, ,1, , ,0, , , , 
1542,1,3,1,1, , , , , , , , , , ,3,5,3,4,5,4,4,1,2,3,3,1,1,0,0,0,0,8,2,4,3,5,1,4,5,3, , , , , ,1, , , ,8, ,1, , , , , , , , , , , , , , ,3,3,0,1,0,2,1,2, ,2,2,3,3,3,3,4,2,2,2,1,4,5,5,1,3,3,4,3,2,2,3,3,3,3,1, ,1,0,0,0,1,0,0,0,4,2,2,4,2,2,2,1, ,8,2,2, ,2, , , ,1,0, , , , 
1543,1,3,1, , , , , , , ,1,1, , ,1,5,4,3,4,4,4,2,2,2,1,0,0,0,0,0,1,9,4,1,2,3,2,3,4,4, , , , , , , ,1, ,8, ,1,1,1,1, , , , , , , , ,2,4,3,1,1,1,1,2,1,1,2,1,1,4,3,3,3,3,3,2,2,2,4,4,4,4,2,4,3,3,4,2,3,2,4,2,4,2, ,0,0,1,0,1,1,0,0,3,2,2,4,4,4,5,2, ,8,4,2, ,1, ,1, , ,1,1, , , 
1546,1,2,1,1,1, ,1,1,1,1,1,1, , ,1,1,1,1,1,1,1,1,2,2,1,1,1,1,1,1,0,8,1,1,1,1,1,1,1,1, , , , , , ,1,1,i say naaaaaa im gaming boiiiiiii stop me stop me ohhh somebody stop me wooooooo then go nuts,8, , , , , , , , ,1, , ,1, , , , , , , , , , , , , , , , , , , , , , , , , , , , , , , , , , , , , , , , ,0,0,1,0,0,0,0,0, ,5, , , , , ,3, ,8,3,1, ,1, , ,1, ,0, , , , 
1548,1,3,6, , , , , , , ,1,1, , ,2,3,3,1,2,1,2,1,1,3,3,1,1,0,1,0,0,13,1,1,1,1,1,3,5,1,1, ,1,1,1,1, , , ,3,1, , , , , , , , , , , , ,1,1,1,0,0,0,0,3,0,0,0,0,0,3,1,1,1,1,1,1,1,1,1,1,1,1,1,1,1,1,1,1,1,1,1,1,1,4, ,0,0,0,0,0,0,0,1,4,1,1,1,1,1,6,1, ,8,2,1, ,2, , , ,1,1,1, , , 
1549,1,4,1,1, , , ,1, , , , , , ,2,4,4,2,4,3,3,3,3,2,2,1,0,0,0,0,0,8,5,3,2,4,3,2,5,3,1, , , , , , , , ,8, , , , ,1, , , ,1, , , , , , , , , , , , , , , , , , , , , , , , , , , , , , , , , , , , , , , , , , , ,999,999,999,999,999,999,999,999, , , , , , , ,2, ,8,2,2, ,2,1, , , ,0, , , , 
1550,1,5,1,1,1, ,1, , , , , , , ,5,5,5,5,5,1,1,1,3,3,3,0,0,0,0,0,1,12,5,3,1,5,5,5,2,2,1, ,1, , , , , , ,4, , ,1, , , , , , , , , , ,4,4,1,0,1,0,0,1,0,1,0,0,1,1,1,1,3,3,3,1,1,1,1,4,4,4,1,4,4,4,4,3,1,3,3,2,4,1, ,1,1,0,0,0,0,0,0,4,3,2,4,3,4,1,2, ,8,1,2, ,2, , , ,1,0, , , , 
1551,1,3,1,1, ,1,1,1,1, , , , , ,6,5,5,5,5,1,1,1,3,2,3,1,0,0,0,0,0,0,5,1,1,5,5,5,1,1,1, , , , ,1, , , ,8, ,1,1,1,1, , , ,1,1, , , ,1,1,1,0,0,0,2,1,0,0,1,0,0,1,1,1,1,1,1,1,1,1,3,3,3,3,3,3,3,3,3,3,3,5,1,5,1,1, ,0,0,0,0,0,0,0,1,3,3,3,3,3,3,1,2, ,8,2,2, ,1, ,1, , ,1,1, , , 
1552,1,3,1,1, , , ,1, , , , , , ,2,5,1,1,5,5,5,5,2,1,2,1,0,0,0,0,0,8,1,1,5,5,5,5,1,1, , ,1, ,1,1, , , ,8, , , , ,1, , , ,1, , , , , ,5, , ,3, , , , ,3, , , ,4,4,4,1,1,1,1,1,1,1, , , , , , ,5, ,5,5,5, , , ,4, ,0,0,0,0,0,0,0,1,5,2,1,4,1,1,6,2, ,8,4,1, ,2, ,1, , ,0, , , , 
1553,1,3,1,1, , , , , , , , , , ,6,3,3,1,5,4,3,2,2,1,1,0,0,0,0,0,1,10,1,3,4,4,1,3,5,2, , ,1, , , , , , ,8, , ,1,1,1, , , , , , , , , , , , , , , , , , , , , , , , , , , , , , , , , , , , , , , , , , , , , , , ,999,999,999,999,999,999,999,999, , , , , , ,4,1, ,8,6,2, ,2, ,1, , ,0,1, , , 
1554,1,3,1, , ,1, , , , , , , , ,4,4,5,4,5,1,1,3,3,3,3,0,1,0,0,0,0,13,2,1,2,4,1,1,3,1,1, ,1, , , , , , ,8, ,1, , , ,1, , , , , , , , , , , , , , , , , , , , , , , , , , , , , , , , , , , , , , , , , , , , , , ,999,999,999,999,999,999,999,999, , , , , , , ,2, ,8,2,2, ,2, , , ,1,0, , , , 
1555,1,4,1,1,1, , , , , , , , , ,2,4,4,4,3,2,3,1,2,2,3,0,1,0,0,0,0,10,5,1, ,2,1,2,2,3, , , , , , , ,1, ,8,1, , , , , , , , , , ,1, ,1,1,1,1,1,1,2,2,1,1,1,1,1,2,2,2,2,2,2,3,3,3,4,3,4,1,1,4,3,1,4,1,4,1,5,1,5,2, ,1,1,0,0,1,1,0,0,5,5,5,3,2,3,1,2, ,8,3,2, ,2, , , , ,1,1, ,1, 
1556,1,4,1,1, ,1,1, , , , , , , ,3,5,4,3,4,2,2,3,2,2,2,1,0,0,0,0,0,8,4,4,4,4,4,4,4,4,1, , , , , , ,1, ,8,1, , , , , , , , , , , , ,3,1,2,1,1,0,0,1,1,2,0,0,0,2,3,1,1,1,1,2,2,2,2,2,4,4,1,3,3,3,3,3,3,5,1,3,3,1, ,1,0,0,0,0,0,0,0,1,1,2,2,1,1,2,1, ,8,2,2, ,2, ,1, , ,0, , , , 
1557,1,3,1,1, , , , , , , , , , ,2,5,5,5,5,5,5,5,3,3,3,1,1,0,0,0,0,13,5,5,5,5,5,5,5,5, , , , , , ,1, , ,5,1, , , , , , , , , , , , , , , ,3,3,3,3,0,3,3,0,3,3,3,3,3,3,3,3,3,3,3,5,5,5,5,5,5,5,5,5,5,5, , , , , , ,0,0,0,0,1,0,0,0,4,4,4,4,4,4,1,2, ,9,3, , ,2, ,1, , ,1,1, , , 
1558,1,3,1,1,1, ,1,1, , , , , , ,4,4,4,4,5,3,3,2,3,1,2,0,0,0,0,0,1,13,4,3,3,4,4,4,3,1, , , , , , ,1, , ,8, , , , ,1, , , , , , , , ,1,1,1,0,3,0,1,1,1,2,1,1,1,3,3,4,4,4,4,2,2,2,2,4,4,5,5,4,2,2,3,3,2,3,3,2,4,1, ,1,0,0,0,0,0,0,0,4,4,4,3,2,4,4,2, ,9,3,2, ,2, , , ,1,0, , , , 
1559,1,3,1, ,1, , , , , , , , , ,2,4,5,3,5,5,5,2,3,3,3,0,0,0,1,0,0,10,5,1,2,1,1,1,5,5, , , , , , , ,1, ,8,1, , , , , , , ,1, , , , ,2,1,2,2,3,2,2,2,2,0,1,0,2,3,2,2,1,1,1,2,2,3,3,2,4,5,1,2,1,3,3,1,1,3,1,3,2,5,Attracted to all genders :),1,0,0,0,0,1,0,0,1,1,2,1,3,1,6,2, ,10,1,2, ,2,1, , ,1,0, , , , 
1560,1,3,7,1,1,1, , , , , ,1, , ,2,5,5,5,5,2,3,1,2,3,3,0,0,0,0,1,0,8,5,1,1,3,1,5,5,3, , , , , , , ,1, ,8, , ,1, ,1, , , , , , , , ,1,1,3,1,1,0,2,1,0,3,2,0,3,1,1,1,1,1,1,1,1,1,3,4,4,4,1,4,4,4,4,1,4,1,1,3,3,4, ,1,0,0,0,0,0,0,0,4,4,4,4,4,4,6,1, ,9,2,2, ,2, , , , ,0, ,1, , 
1562,1,3,1, , , , , , , , ,1, , ,6,4,2,3,5,1,1,1,3,3,3,0,0,0,0,1,0,10,5,1,4,5,2,5,5,5, , ,1,1, , , , , ,8, ,1,1,1,1,1, , ,1, , , , ,1,3,2,0,0,0,1,3,0,1,2,1,0,3,3,3,3,3,3,2,3,3,3,4,4,3,2,2,2,2,3,2,3,2,1,2,5,2, ,1,1,0,0,1,0,1,0,3,3,3,3,4,4,3,2, ,10,3,1,i get extra time on work assigngments,1, ,1, , ,1, , , , 
1563,1,3,1,1,1,1, ,1,1, , , , , ,2,5,4,4,4,4,1,1,2,2,3,0,0,0,0,0,1,11,4,1,2,3,2,2,4,2, , ,1, , , , , , ,8, , , , ,1, , , , , , , , ,3,3,2,0,0,0,0,3,0,0,1,0,0,3,2,3,3,2,3,2,1,1,2,4,4,4,1,3,3,3,3,1,1,5,1,4,2,1, ,0,0,0,0,0,0,0,1,3,3,3,3,3,3,4,1, ,10,4,2, ,1, , , ,1,0, , , , 
1564,1,3,1,1,1,1, , ,1, , , , , ,5,4,4,1,3,3,3,1,3,3,3,0,0,0,0,0,1,13,4,1,3,1,1,2,5,2,1, , , , , , , , ,8, , ,1, ,1, , , , , , , , , , , ,0,3,2,3,3,0,0,2,3,3,4,3,4,2,1,2,3,3,3,4,1,4,5,1,4,3,1,1,1,5,2,5,2,5,1, ,1,0,0,1,0,0,0,0,3,5,5,3,5,5,6,2, ,10,2,2, ,2, ,1, , ,0, , , , 
1565,1,3,6, , , ,1, ,1, , ,1, , ,4,5,4,3,5,3,2,1,3,2,3,0,0,0,0,0,1,9,5,1,1,4,1,1,1,1, , , , , , ,1, ,During important matters,8,1, , , , , , , , , , , , ,1,5,1,0,1,0,2,2,0,0,0,0,0,2,2,1,1,1,1,1,1,1,3,4,4,1,1,4,4,4,4,1,1,5,1,5,1,1, ,1,0,0,0,0,0,0,0,4,2,3,1,1,3,3,1, ,9,4,2, ,2, ,1, , ,0, , , , 
1566,1,4,1,1, , , , ,1, , , , , ,4,4,5,4,5,1,1,2,3,3,3,0,0,0,1,0,0,8,3,1,3,3,4,3,2,1, , , , , , ,1, ,"During meals, school, bedtime, most of the time during the day (lots of chores ^_^hehe), etc",3, , , , , , , , , , , ,1,"Over the years I´ve seen social media in movies, tv shows, youtube/websites, school especially, and my parents too. I´ve known about social media for a while now.", , , , , , , , , , , , , , , , , , , , , , , , , , , , , , , , , , , , , , , ,999,999,999,999,999,999,999,999, , , , , , , ,2, ,9,4,2, ,2,1,1,1,1,1,1,1, , 
1567,1, ,2, , , , , , , , , , , , , , , , , , , ,2,3,3,999,999,999,999,999,999,14, , , , , , , , , , , , , , , , , , , , , , , , , , , , , , , , , , , , , , , , , , , , , , , , , , , , , , , , , , , , , , , , , , , , , , ,999,999,999,999,999,999,999,999, , , , , , , ,1, ,10, , , , , , , , ,1,1, , , 
1568,1,2,1,1,1, , , , , , , ,1, ,5,5,2,4,4,5,2,1,1,1,1,1,1,0,1,1,0,10,5,1,2,4,1,2,5,5, , , , , , , ,1, ,8, , , ,1, , ,1, , , , , , ,1,4,2,3,3,3,3,3,1,3,2,3,3,3,1,3,2,2,1,2,2,2,4,1,3,4,3,4,1,4,3,2,4,2,5,4,5,3, ,1,1,0,0,0,1,0,0,5,5,5,5,5,5,1,2, ,9,5,2, ,2, , , ,1,0, , , , 
1569,1,3,1,1, , , , ,1, , , , , ,6,4,3,3,5,5,5,1,3,2,2,0,0,0,1,0,0,9,3,1,1,2,1,2,4,2, , ,1, , , , , , ,8, , , , ,1, , , ,1, , , , ,1,5,4,1,2, ,3,3,2,3,2,2,1,4,4,4,3,3,3,3,2,3,3,3,2,5,1,4,1,4,2,1,3,2,5,2,5,1, ,1,0,0,0,1,1,0,0,5,4,3,3,4,5,5,2, ,9,2,2, ,2, ,1, , ,0, , , , 
1570,1,4,1,1, , ,1, , , , , , , ,6,5,4,4,5,3,3,1,3,3,3,0,0,0,0,0,1,10,5,2,2,5,2,4,5,3, , ,1, , , , , , ,8, ,1, , , ,1, , , , , , , ,3,3,2,1,0,0,1,2,0,1,2,0,0,1,2,3,2,2,2,1,1,1,3,4,4,4,2,4,2,3,2,1,3, , , , , , ,1,1,0,0,0,0,0,0,5,3,3,4,3,4,2,2, ,9,2,2, ,1,1,1, , ,0, , , , 
1571,1,5,4,1,1, , , ,1, , , , , ,5,5,5,5,5,2,3,1,3,3,3,0,0,0,0,0,1,0,4,5,3,5,2,4,2,1,1,1,1, ,1, , , , ,2,1, , , ,1, , , ,1, , , , ,3,4,2,0,3,0,3,0,3,3,0,3,3,2,4,3,1,1,1,1,1,2,5,4,4,4,4,4,3,4,4,4,4,5,2,2,5,6, ,0,1,0,0,0,0,1,0,5,5,5,5,3,2,6,2, ,9,4,1,So I can make sure I achieve everything the way I want it.,2, , , , ,0, , ,1,Black/Haitian
1572,1,2,1,1, , , ,1, , , , , , ,3,3,3,2,5,5,3,1,2,2,2,0,0,0,0,0,1,11,5,1,2,1,1,1,4,2, , , , , , , ,1, ,8, ,1, , , , , , , , , , , , , , ,2,2,0,1,1,0,2,2,0,1,4,2,4,1,2,1,2,2,2, , , , , , , , , , , , , , , , , ,1,1,0,1,0,0,0,0,1,5,4, ,3,4,6,1, ,10,4,2, ,2, ,1, , ,0, , , , 
1574,1,4,1,1,1, ,1, , , , , , , ,4,4,5,5,5,1,1,2,3,3,3,0,0,0,0,0,1,11,5,1,1,5,2,5,3,3,1, ,1, , , , , , ,8, ,1,1,1,1,1, , , , , , , ,3,3,2,1,0,0,1,1,1,0,0,0,1,3,3,3,3,3,3,2,3,2,3,4,4,4,1,4,4,1,3,2,2,2,4,2,4,1, ,1,1,0,0,0,0,0,0,5,5,2,2,2,2,1,2, ,9,2,2, ,2, , , ,1,0, , , , 
1575,1,3,4,1,1,1,1,1,1,1,1,1,1, ,6,1,5,3,3,3,4,1,1,2,2,1,1,1,1,1,1,0,1,2,3,4,4,3,2,2,1,1,1, ,1,1,1, , ,7,1,1,1,1, , , , ,1,1, , , ,1,1,2,1,0,2,1,2,2,1,2,0,0,1,1,2,2,2,3,1,3,2,1,3,3,5,5,3, ,1,1,1,5,1,2,4,5,2, ,0,0,1,0,0,0,0,0,2,3,3,3,4,4,4,3, ,6,6,1, ,1, ,1, , ,1, , , , 
1576,1,5,1,1,1, , , ,1, , , , , ,4,5,5,4,5,2,2,2,3,2,2,0,1,1,0,0,0,12,3,1,3,4,1,2,4,3,1, , , , , , , , ,6, ,1, , ,1,1,1, , , , , , ,2,3,1,0,1,0,1,2,0, ,0,0,0,3,2,2,3,2,2,1,1,1,2,4,4,4,1,4,3,2,2,2,1,4,3,4,5,1, ,0,1,0,1,1,0,0,0,5,3,2,3,1,4,2,2, ,9,1,2, ,2, , , ,1,1,1, , , 
1577,1,3,1,1,1,1, , , , , , , , ,5,4,3,2,5,1,2,3,2,2,2,0,0,0,0,0,1,12,1,1,3,5,1,4,5,1,1, , , , , , , , ,8, ,1,1,1,1,1, , , ,1,1, , , , , ,0,1,0,2,1,1,2,1,0,0,4,1,4,3,3,3,1,1,1,1,4,4,4,2,4,4,3,3,4,4,4,1,2,3,1, ,1,0,0,0,0,1,0,0,5,4,3,4,2,4,5,2, ,9,3,2, ,1, , , ,1,0, , , , 
1578,1,3,7, , ,1, , , , , , , , ,5, ,1, , , , , , , , ,0,0,0,0,1,1,13,2, , , , , , , ,1, , , , , , , , , , , , , , , ,1, , , , , , ,1,1, , , , , , , , , , , , , , , , , ,2, , , , , , ,4, , , , , , , , , , ,1, ,0,0,0,0,1,0,0,0, ,5, , , , ,1,2, ,9,4,2, ,2, , , , ,1, , ,1, 
1579,1,3,1,1,1, ,1,1, , , , , , ,4,4,4,3,5,2,1,1,3,2,3,1,0,0,0,0,0,13,3,4,3,5,2,3,1,3, , , , , ,1, , , ,8, ,1,1, ,1, , , , , , , , ,3,3,2,0,1,0,1,1,1,1,1,0,1,3,1,2,4,2,2,2,1,1,4,4,3,4,1,3,3,2,3,2,1,3,4,2,4,1, ,1,1,0,0,0,0,0,0,4,2,2,4,3,4,1,2, ,9,2,2, ,2, , , ,1,0, , , , 
1580,1,2,1,1,1, ,1, , , , , , , ,4,3,4,2,3,2,2,2,2,1,2,0,0,0,1,1,0,13,4,2,4,4,1,3,4,3,1, , , , , , , , ,8, ,1, , ,1,1,1,1, ,1,1, , ,1,1,1,3,2,2,2,2,0,3,0,0,2,1,1,1,1,2,1,3,2,1,1,1,4,3,1,4,1,4,1,1,1,1,5,1,1,1, ,1,1,1,1,1,0,0,0,5,3,5,1,4,2,6,2, ,10,2,2, ,2, , , ,1,0, , , , 
1581,1,4,1,1,1,1,1, , , , , , , ,5,4,5,5,3,3,3,4,3,3,3,0,0,0,0,0,1,11,4,1,4,5,1,4,4,3, , , , , , , ,1, ,7, ,1,1, ,1, , , ,1,1, , , ,1,2,1,2,2,3,3,2,3,3,2,2,3,1,2,4,4,4,4,2,3,3,4,3,4,4,1,4,3,1,4,3,3,1,5,1,5,1, ,1,1,0,0,0,0,0,0,5,5,5,5,5,5,2,2, ,9,2,2, ,2, , , ,1,0, , , , 
1582,1,4,1,1, , ,1, , , , , , , ,4,3,2,1,5,5,5,5,3,2,2,0,1,0,0,0,0,10,4,1,3,1,1,1,5,4, , ,1, , ,1, , , ,8, , ,1, , , , , , , , , , ,2,2,1,1,1,0,1,0,3,3,0,2,3,3,1,3,3,1,1,3,1,2,4,1,3,1,1,4,4,4,3,1,3,2,5,2,5,1, ,0,1,1,0,0,1,0,0,5,5,5,5,5,5,6,2, ,9,2,2, ,1, , , ,1,0, , , , 
1583,1,3,1,1,1, ,1, , , , , , , ,4,4,5,4,5,1,1,2,2,2,2,0,1,0,0,0,0,11,4,1,2,5,2,3,2,2,1, , , , , , , , ,8, ,1,1, ,1, , , ,1, , , , , , , ,3,3,3,2,2,3,2,2,3,3,3,4,4,4,4,4,2,2,3,4,1,4,5,1,3,3,5,1,3,4,2,5,3,5,1, ,1,1,0,0,0,0,0,0,5,5,2,4,5,5,4,2, ,9,2,2, ,2, , , ,1,0, , , , 
1584,1,2,3,1,1, , , ,1, , , , , ,1,3,3,2,4,3,1,2,2,2,3,0,0,0,0,0,1,12,5,1,1,1,1,2,5,5, , , , , , , ,1, ,8, , , , ,1, , , ,1, , ,1, ,1,1,3,0,0,0,0,2,0,0,2,0,0,2,2,3,1,1,1,1,2,2,4,2,4,3,1,3,4,4,4,1,1,3,4,2,5,1, ,1,0,0,0,0,0,0,0,5,5,3,3,1,4,6,1, ,10,3,2, ,2, , , , ,0,1, , , 
1585,1,3,3, ,1, ,1, , , , , ,1,step mother,4,5,4,4,5,3,3,1,2,2,2,0,0,0,0,1,0,11,5,1,1,1,1,3,1,2, , , , , , , ,1, ,8, , ,1, , , , , , , , , , , , , ,0,1,0,0,1,1,1,1,1,3,3,2,3,3,3,3,1,2,2,3,3,4,4,3,4,3,2,3,1,1,1,5,1,5,3, ,1,1,0,0,0,1,0,0,4,3,3,4,4,4,3,2, ,10,2,2, ,2, , , , ,0,1, , , 
1587,1,3,1,1, , , , , , , , , , ,5,4,4,4,5,3,3,1,3,3,2,0,0,0,0,0,1,13,5,1,2,3,1,2,1,4, , , , , ,1, , , ,8, , , , , ,1, , , , , , , , , , ,0,1,0,0,3,0,0,0,0,0,4,4,4,1,1,1,1,1,1,4,3,1,3,1,4,1,1,1,1,1,4,1,4,2,3, ,0,0,0,0,0,0,0,1,3,2,2,2,2,2,3,2, ,9,1,2, ,2,1, , , ,0, , , , 
1588,1,3,1,1,1, ,1, , , , , ,1,dog,6,5,5,5,3,5,5,1,3,3,2,1,0,0,0,0,0,13,1,4,3,4,5,4,3,3, , , , , , ,1, ,any time,8, , , , , , , , , , , ,1, i don't know, , , , , , , , , , , , , , , , , , , , , , , , , , , , , , , , , , , , , , , ,0,0,0,0,0,0,0,1, , , , , , , ,1, ,9,2,2, ,2, , ,1, ,0, , , , 
1589,1,4,1,1,1, ,1, , , , , , , ,3,5,5,4,5,3,3,2,3,2,2,0,0,0,0,1,0,10,2,1,3,2,4,2,5,1, , , , , , , ,1, ,8, ,1,1, ,1, , , ,1, , , , ,3,4,2,2,2,1,0,1,1,1,1,1,1,4,3,4,4,4,4,3,3,3,4,3,4,4,3,4,2,4,3,1,3,3,5,2,5,2, ,0,1,0,0,0,0,0,0,5,5,4,5,3,4,1,2, ,10,1,1,I am on the autism spectrum,1, , , , ,1, , ,1,puerto rican
1590,1,3,1, ,1, ,1, , , , , , , ,2,3,2,2,5,3,3,1,2,1,2,0,0,0,0,0,1,12,3,1,3,5,1,4,5,3, , ,1, ,1,1, , , ,8, ,1,1, ,1, ,1, ,1, , ,1,Some movies too,1,1,4,0,3,3,2,1,2,3,2,2,3,4,3,4,3,3,4,2,1,2,3,1,1,4,1,5,1,4,4,5,1,3,3,2,3,2, ,0,1,0,0,0,1,0,0,5,4,4,3,3,5,4,2, ,9,4,2, ,1,1, , , ,0, , , , 
1591,1,3,7,1,1,1,1,1, , , , , , ,3,5,5,2,4,1,1,1,3,3,2,0,0,0,1,0,0,12,1,1,2,5,1,3,5,5,1, , , , , , , , ,8, ,1,1, ,1, , , , , , , , ,2,5,1,0,1,0,2,1,0,2,1,1,2,2,1,3,1,1,1,1,1,1,3,2,4,1,1,4,2,3,3,1,1,4,2,4,2,1, ,1,1,0,0,0,1,0,0,5,4,1,2,3,3,6,2, ,9,1,2, ,2, , , , ,0, ,1, , 
1592,1,5,1,1, ,1, ,1,1, , , , , ,2,5,5,5,4,1,2,2,3,3,3,0,0,0,0,0,1,0,4,1,3,3,1,2,3,5,1, , ,1,1,1, , , ,3, ,1,1, ,1, , , , , , ,1,Myself using common sense,2,3,1,0,1,0,3,0,0,2,0,0,0,3,2,2,1,2,1,3,1,1,1,4,4,2,5,3,4,2,3,5,1,2,1,1,1,1, ,1,1,0,0,0,0,0,0,4,1,3,1,1,3,3,2, ,10,2,2, ,1, , , , ,1, , ,1,Puerto Rican and Dominican
1593,1,1,1,1,1, , , , , , , ,1,twin sister,5,4,2,2,5,3,3,1,2,3,2,0,0,0,0,1,0,11,4,5,5,5,5,5,3,3, , ,1, ,1,1, , , ,3, ,1, , ,1,1, ,1,1,1, , , ,3,4,2,3,3,3,3,2,0,3,2,3,3,4,3,3,2,1,1,2,1,3,4,2,4,4,1,3,4,3,2,3,4,2,3,3,4,3, ,1,0,0,0,0,0,0,0,3,4,5,3,4,5,3,2, ,9,1,1,504 plan,1, , , , ,0, ,1, , 
1594,1,3,1,1, , , ,1,1, , , , , ,3,2,3,3,5,3,2,1,2,3,3,0,0,0,0,0,1,10,3,1,2,2,2,1,4,5, , , , , , , ,1, ,8, , ,1, ,1, , , , , , , , ,2,3,1,0,1,1,3,0,0,1,0,1,1,3,3,3,2,2,1,1,2,2,4,3,4,5,3, ,3,4,1,2,2,4,2,3,3,1, ,0,1,1,0,0,0,0,0,5,3,3,3,1,4,2,2, ,9,2,2, ,2, ,1, , ,0, , ,1,Trinidadian
1595,1,3,3,1, , , ,1,1, , , , , ,2,5,5,3,5,1,1,1,3,3,3,0,0,0,0,0,1,13,5,1,1,1,5,5,3,1,1, , , ,1,1, , , ,1,1, , , , , , , , , , , , , , , ,0,0,0,0,3,0,0,3,0,0,3,2, ,2,2,2,1,1,1,3,2,2,3,2,2,2,2,3,2,2,3,1,2,1,1, ,0,0,0,0,0,0,0,1,2,2,3,4,4,4,1,2, ,9,2,2, ,2, , , , ,0,1, , , 
1596,1,4,1,1,1, ,1, , , , , , , ,5,4,5,3,4,2,1,1,3,2,3,0,0,0,0,0,1,12,4,2,3,5,2,4,3,3,1, , , , ,1, , , ,5, ,1,1, ,1, , , , ,1, , , ,1,2,1,1,2,0,1,2,3,1,1,1,1,3,3,3,3,4,2,2,1,2,3,4,4,2,2,3,3,2,3,2,3,3,4,2,3,1, ,1,1,0,0,0,0,0,0,4,4,3,4,3,4,4,2, ,9,2,2, ,2, , , ,1,0, , , , 
1597,1,1,1,1,1, , , , , , , , , ,3,3,1,2,4,3,3,5,2,2,2,0,0,0,0,0,1,9,3,2,2,5,1,3,3,2, , ,1, , , , , , ,7,1, , , , , , , , , , , , ,1,2,2,2,3,1,1,1,2,3,2,2,3,4,4,4,4,4,4,2,3,3,4,3,4,3,2,4,4,1,2,3,4,2,4,3,4,1, ,1,1,0,1,0,1,1,0,5,5,5,5,5,5,5,2, ,9,2,2, ,2, , , ,1,0, , , , 
1598,1,3,1,1, , , ,1,1, , , , , ,6,5,4,4,5,3,3,1,3,3,3,0,1,0,0,0,0,12,5,1,3,5,1,1,3,5, , , , ,1, , , , ,8, , , , ,1, , , , , , , , ,3,1,1,0,0,0,2,1,0,0,0,0,0,2,1,1,1,1,1,1,1,1,3,3,3,3,1,3,3,3,3,1,1,5,1,5,1,1, ,1,0,0,0,0,0,0,0,2,2,2,2,2,5,5,1, ,9,4,1, ,2, ,1, ,1,0, , , , 
1599,1,3,2,1, , , , , , , , ,1,sobrinos,2,4,3,2,3,4,1,1,2,3,3,0,1,0,1,0,0,14,4,3,3,3,4,4,4,3, , , , , , , ,1, ,8, , , , , , , , ,1,1, , , , , , ,0,1,0,2,3,1,0,3,0,0,1,3,4,3,3,2,1,1,1,3, , , , ,3, , , , , ,2,2,3,3,2, ,1,0,0,0,1,0,0,0,4,4,4,3,3,3,5,2, ,10,4,2, ,2, , , , ,1,1, , , 
1600,1,3,1,1,1,1, , , , , , , , ,5,5,5,4,5,1,1,1,3,3,3,0,0,0,0,0,1,11,5,3,3,5,5,5,1,3,1, , , ,1,1, , , ,8, ,1,1,1,1,1, , ,1,1, , , ,3,3,1,0,0,0,1,0,2,2,0,0,0,1,1,1,1,1,1,1,1,1,1,4,4,4,1,3,3,3,4,1,3,5,1,5,1,1, ,1,1,0,0,0,0,0,0,5,4,1,4,2,1,1,2, ,6,1,2, ,1, , , ,1,0, , , , 
1601,1,2,1,1,1, ,1, , , , , , , ,3,4,5,5,5,1,1,3,3,2,2,0,0,0,0,1,0,0,4,3,4,5,1,5,1,2,1,1,1, , ,1, , , ,1, ,1, , , , , , , , , , , ,3,3,1,3,1,1,3,3,3,0,1,2,2,4,1,3,1,1,1,3,3,3,3,2,4,4,5,3,3,5,4,5,5,4,3,4,3,1, ,0,1,0,0,0,0,0,0,5,2,4,3,3,5,4,2, ,6,2,2, ,1, , , ,1,0, , , , 
1602,1,2,1,1,1, , , ,1, , , , , ,5,4,4,4,5,1,3,3,2,2,2,0,0,0,0,1,0,0,4,2,4,3,3,3,2,3,1,1,1, , , , , , ,8, ,1, , ,1,1, , ,1,1, ,1,games,2,3,3,1,3,3,0,2,1,1,2,2,1,2,3,3,3,2,3,2,1,2,3,3,3,3,1,3,1,2,4,3,3,3,2,3,2,1, ,1,1,0,0,0,0,1,0,4,4,4,4,4,4,5,1, ,6,2,2, ,2, , , ,1,0, , , , 
1603,1,4,1,1,1, , , ,1, , , , , ,4,5,4,5,5,2,3,1,2,2,3,0,1,0,1,0,0,11,3,1,2,3,3,4,3,2,1, , , , ,1, , , ,8, ,1,1, ,1, ,1, ,1,1, , , ,1,1,2,1,2,0,1,0,1,0,1,0,1,3,3,3,3,3,3,2,2,2,3,3,3,4,1, ,2,2,4,1,3,5,1,4,2,2, ,1,1,0,0,0,1,0,0,5,5,4,5,3,4,5,2, ,8,1,2, ,1, , , ,1,0, , , , 
1604,1,4,1,1, ,1, , , , , , , , ,5,5,2,3,5,2,2,3,2,2,1,0,0,0,0,1,0,10,4,3,3,5,5,5,1,2, , ,1, , , , , , ,4, ,1, , , , , , , , , , , ,1,3,3,0,1,1,1,3,1,0,1,1,1,3,2,3,4,4,4,2,2,2,1,4,4,5,5,1,2,4,3,3,2,3,3,4,2,3, ,0,1,0,1,0,0,0,0,5,5,5,4,5,5,1,1, ,7,2,2, ,1, , , ,1,0, , , , 
1605,1, ,1,1,1, , ,1, , , , , , ,5,4,4,4,3,1,4,3,3,3,3,0,0,0,1,0,0,0,5,5,2,2,1,2,1,1,1, ,1, ,1,1, , , ,1, ,1, , ,1, , , ,1, , , , ,2,4,1,1,2,1,2,2,0,0,0,1,0,4,3,4,1,2,1,1,3,1,3,3,4,5,1,1,1,4,3,1,3,4,5,5,5,1, ,1,1,0,0,0,0,0,0,5,4,3,3,4,4,5,1, ,8,2,2, ,1, , , ,1,0, , , , 
1606,1,2,1,1,1, , ,1, , , , , , ,4,3,3,2,4,1,1,1,3,3,3,0,1,0,0,0,0, , , , , , , , , , , , , , , , , , , , , , , , , , , , , , , , , , , , , , , , , , , , , , , , , , , , , , , , , , , , , , , , , , , , , , , ,999,999,999,999,999,999,999,999, , , , , , , ,2, ,10,1,2, ,1, , , ,1,0, , , , 
1607,1,4,1,1,1, , ,1, , , , , , ,5,4,5,4,4,2,2,1,3,3,3,0,0,0,0,0,1,11,5,1,3,4,1,5,3,4,1, ,1, ,1,1, , , ,2, , , , ,1, , , , , , , , ,1,4,1,0,0,0,1,2,0,1,1,0,0,3,3,3,3,2,2,1,1,1,3,3,3,4,1,2,2,3,2,5,5,4,1,3,1,4, ,0,1,0,0,0,0,0,0,2,2,2,1,1,2,5,1, ,6,2,2, ,2, , , ,1,0, , , , 
1608,1,4,1,1,1,1, , , , , , , , ,4,4,4,4,5,2,2,1,3,3,2,0,0,0,0,0,1,10,4,2,2,3,3,3,3,1,1, ,1, , , , , , ,3, ,1,1, ,1, , , , , , , , ,3,2,1,2,0,0,2,1,1,0,1,0,0,3,2,2,3,2,2,2,1,2,3,4,3,4,2,3,2,1,3,1,1,4,2,4,3,1, ,0,1,0,0,0,0,0,0,3,3,3,4,2,4,2,2, ,8,1,1,Because of epilepsy,2, , , ,1,0, , , , 
1609,1,3,1,1,1,1,1, , , , , ,1,Dog,5,4,4,4,5,1,3,2,2,3,2,0,0,0,0,0,1,11,3,1,4,2,3,3,3,2,1, , , , ,1, , , ,5, ,1, , , ,1,1, , , , , , ,1,2,1,0,1,0,0,2,1,0,0,0,0,3,3,3,2,1,1,1,2,1,3,3,4,4,1,3,3,2,4,2,4,3,2,3,4,1, ,0,1,0,1,0,1,0,0,4,3,4,3,1,3,2,2, ,8,2,2, ,1, , , , ,1,1, , , 
1610,1,3,1,1,1,1,1, , , , , , , ,5,5,5,5,5,2,1,2,2,1,1,1,1,0,1,1,0,11,4,5,2,5,4,5,2,1, , ,1, , ,1, , , ,7, ,1,1, , ,1, , , , , , , ,3,3,1,0,0,0,3,0,0,0,0,0,0,1,1,1,1,1,1,1,1,1,2,2,2,3,1,2,1,1,1,1,1,5,1,3,1,5,Males,0,1,0,0,0,0,0,0,3,2,2,3,1,2,1,2, ,6,3,1,"For SPLD - dyscalculia, slow processing. working memory",1, , , ,1,0, , , , 
1611,1,5,1,1, , , ,1,1, , , , , ,4,5,4,5,5,3,3,1,3,3,3,0,0,0,0,0,1,11,5,5,3,5,5,5,2,1,1,1,1, , ,1, , , ,3, ,1,1, , ,1, , , , , , , ,4,5,1,0,0,0,0,3,0,0,2,0,1,2,3,3,3,3,3,2,1,1,1,1,1,1,1,1,1,1,1,1,1,5,1,5,1,1, ,1,0,1,1,0,1,1,0,4,2,2,2,2,2,2,2, ,8,2,1,Extra help,2, , , , ,1,1, , , 
1612,1,5,1,1,1, , , , , , , , , ,5,5,5,5,5,1,2,1,3,3,3,0,0,0,0,0,1,9,4,5,2,5,5,5,1,2,1, ,1, , , , , , ,2, ,1, , , , , , , , , , , ,1,1,2,1,0,0,0,0,0,0,0,0,0,2,3,2,1,1,1,1,1,1,1,3,4,4,1,4,4,1,1,1,3,5,1,4,1,1, ,0,1,0,0,0,0,0,0,4,5,3,4,1,4,1,2, ,6,1,2, ,2, , , ,1,0, , , , 
1613,1,2,1,1, , , ,1,1,1, , , , ,5,1,5,2,5,1,4,5,3,3,2,1,0,0,0,0,0,0,5,5,5,5,5,5,1,3,1, ,1, ,1,1, , , ,4, ,1,1,1, , ,1, , , , , , ,3,2,1,2,1,0,1,0, ,0,0,0,0,1,1,1,1,1,1,1,1,1,4,1,1,4,1,4,4,4,2,1,1,4,1,5,2,1, ,0,1,0,0,0,0,0,0,5,5,5,5,4,4,1,1, ,7,2,1,im in a program that helps me stay focus and helps with work.,2, , , , ,1,1, , , 
1614,1,3,1,1,1, , , ,1, , , , , ,5,4,5,3,5,2,2,2,3,3,3,0,0,0,0,0,1,10,4,1,3,3,1,1,2,2,1,1,1, , ,1, , , ,8,1, , , , , , , , , , , , ,1,5,2,0,0,0,1,2,0,0,0,0,0,4,2,4,4,4,3,1,2,3,2,1,4,3,5,4,5,4,2,5,2,5,1,4,2,1, ,1,0,0,0,0,0,0,0,5,5,3,3,3,5,5,2, ,6,1,2, ,2, , , ,1,0, , , , 
1615,1,3,1,1,1, , ,1, , , , ,1,"Twin Brother Technically older, but I don't like to think of him as older than me.",4,4,5,3,5,1,2,3,3,3,3,0,0,0,0,0,1,0,5,5,1,5,5,5,1,1, , , , , , ,1, ,I don't have a phone,1, ,1, , , , , , , , , , , , , , ,1,0,0,0,0,0,1,1,1,1,1,1,1,1,1,1,1,1,1,4,1,4,4,1,3,3,1,4,1,3,4,1,1,1,5,idk really. Opposite I guess? I don't like anyone yet,1,1,0,1,0,0,0,0,3,4,4,1,2,5,1,2, ,7,1,2, ,1,1, , , ,0, , ,1,American
1616,1,2,1,1,1, ,1, , , , , , , ,4,4,4,3,3,1,3,3,2,2,2,0,0,0,0,1,0,0,4,3,3,3,1,4,2,3,1, ,1, ,1,1, , , ,5, ,1,1, ,1,1, , ,1, , , , ,2,2,2,2,3,0,1,0,2,3,2,3,0,3,4,4,1,1,1,2,2,3,3,3,4,3,5,5,3,4,4,5,3,3,1,1,4,1, ,1,1,0,0,0,0,0,0,5,3,3,2,4,4,2,1, ,6,2,2, ,2, , , ,1,0, , , , 
1617,1,3,1,1,1, ,1, , , , , , , ,4,5,3,5,5,1,1,1,3,3,2,0,0,0,0,0,1,11,4,1,1,2,1,2,3,3,1, ,1, , ,1, , , ,6, ,1,1, ,1, , , , , , , , ,2,2,1,3,1,0,1,1,1,3,0,0,1,3,3,1,1,3,1,2,2,1,4,2,2,4,1,3,1,1,1,3,1,5,2,3,1,1, ,1,0,0,1,1,1,1,0,4,4,2,3,2,4,2,2, ,6,2,2, ,1, , , ,1,0, , , , 
1618,1,3,1,1,1, , ,1, , , , , , ,5,5,4,4,5,1,1,1,3,2,3,0,0,0,0,0,1,13,4,1,2,3,4,3,3,2,1, ,1, , , , , , ,8, ,1, , ,1, , , , , , , , ,1,2,2,0,0,0,2,0,0,0,0, ,0,2,1,1,1,1,1,1,1,1,2,4,4,5,5,3,4,4,3,5,2,4,1,4,2,1, ,1,0,0,1,0,0,0,0,2,1,1,2,1,4,2,1, ,7,1,2, ,1, , , ,1,0, , , , 
1619,1,3,1,1,1, ,1, ,1, , , , , ,4,4,4,3,4,2,2,3,3,3,2,0,0,0,0,1,0,0,4,2,3,3,1,3,4,3,1, ,1, ,1,1, , , ,5, ,1,1, , ,1, , , , , , , ,2,4,1,0,1,0,0,1,0,0,1,0,0,3,3,2,1,1,1,2,1,1,3,3,4,4,2,3,4,4,4,2,3,3,3,3,3,4, ,0,0,0,0,0,1,0,0,4,3,3,3,3,4,3,1, ,7,4,1,adhd,1, , , ,1,0, , , , 
1620,1, , , , , , , , , , , , , , , , , , , , , , , , ,999,999,999,999,999,999, , , , , , , , , , , , , , , , , , , , , , , , , , , , , , , , , , , , , , , , , , , , , , , , , , , , , , , , , , , , , , , , , , , , , , , ,999,999,999,999,999,999,999,999, , , , , , , , , , , , , , , , , , , , , , , 
1621,1,3,3,1,1, ,1, , , , , ,1, ,3,5,4,4,5,1,5,2,2,2,2,0,0,0,0,0,1,12,4,1,4,5,1,2,1,4, , ,1, , ,1,1, ,When I am in trouble,6, ,1, , , , , , ,1, ,1, , ,1,1,1, ,3,0,0,3,1,0,0,0,0,2,2,2,1,1,1,1,1,1,2,4,4,4,1,4,1,1,1,2,1,5,1,5,1,1, ,1,0,0,0,0,0,0,0,2,2,4,4,2,4,6,2, ,7,2,1,I have an IEP,2, , , ,1,0,1, , , 
1622,1,3,1,1,1, , ,1, , , , , , ,3,4,4,5,5,3,3,2,3,3,3,0,0,0,0,0,1,11,5,1,2,4,4,4,1,2, , ,1, , ,1, , , ,8, ,1, , , , , , , , , , , ,4,4,1,0,0,0,0,1,0,0,0,0,0,3,2,3,2,1,1,1,1,1,1,4,4,3,5,3,4,3,4,5,5,5,1,5,2,1, ,1,1,0,0,0,1,0,0,5,4,1,3,1,2,1,1, ,7,1,2, ,2, , , ,1,0, , , , 
1623,1,5,1,1,1,1, ,1, , , , ,1,a dog,4,4,4,5,5, ,1,2,3,3,2,1,0,0,0,0,0,10,5,4,4,1,5,5,1,1,1, ,1, , ,1, , , ,4, , ,1, , , , , , , , , , ,3,3, , , , , , , , , , , , , , , , , , , , ,2,3,3,3,3,4,4,4,4, ,2,2, ,3,2,4, ,999,999,999,999,999,999,999,999, , , , , , , ,1, ,6, ,1, ,1, , , , ,0, ,1, , 
